LOCATION,UnknownCity,-,REU,TMY-RUN 2025,61996,-21.35,55.75,4.0,287.0
DESIGN CONDITIONS,0
TYPICAL/EXTREME PERIODS,4,Wet Season - Week Near Average For Period,Typical,11/29,12/ 5,Dry Season - Week Near Average For Period,Typical,9/ 7,9/13,Tropical Hot - Week Nearest Max Temperature For Period,Extreme,2/ 5,2/11,Tropical Cold- Week Nearest Min Temperature For Period,Extreme,8/ 6,8/12
GROUND TEMPERATURES,3,.5,,,,25.04,26.08,26.33,26.05,24.57,22.95,21.44,20.38,20.10,20.66,21.93,23.50,2,,,,24.07,25.05,25.50,25.50,24.70,23.59,22.40,21.40,20.91,21.04,21.76,22.85,4,,,,23.43,24.20,24.66,24.79,24.49,23.83,23.03,22.25,21.74,21.64,21.96,22.60
HOLIDAYS/DAYLIGHT SAVINGS,No,0,0,0
COMMENTS 1,Custom/User Format -- WMO#61996; First version of the TMY-stations on TMY-RUN project 2025;
COMMENTS 2, -- Ground temps produced with a standard soil diffusivity of 2.3225760E-03 {m**2/day}
DATA PERIODS,1,1,Data,Sunday, 1/ 1,12/31
2025,1,1,1,0,?9?9?9?9E0?9?9?9?9*9?9?9?9?9*9?9*9*9?9*_?9?9*9?9*9,23.3,18.3,73,98090,0,1414,402,0,0,0,0,0,0,0,180,1.3,8,8,777.7,77777,9,999999999,0,0.0000,0,0,999.000,0.0,99.0
2025,1,1,2,0,?9?9?9?9E0?9?9?9?9*9?9?9?9?9*9?9*9*9?9*_?9?9*9?9*9,22.8,18.3,76,98090,0,1414,393,0,0,0,0,0,0,0,180,1.3,7,7,777.7,77777,9,999999999,0,0.0000,0,0,999.000,0.0,99.0
2025,1,1,3,0,?9?9?9?9E0?9?9?9?9*9?9?9?9?9*9?9*9*9?9*_?9?9*9?9*9,22.4,18.4,78,98090,0,1414,391,0,0,0,0,0,0,0,180,1.3,7,7,777.7,77777,9,999999999,0,0.0000,0,0,999.000,0.0,99.0
2025,1,1,4,0,?9?9?9?9E0?9?9?9?9*9?9?9?9?9*9?9*9*9?9*_?9?9*9?9*9,22.0,18.4,80,98090,0,1414,389,0,0,0,0,0,0,0,180,1.3,7,7,777.7,77777,9,999999999,0,0.0000,0,0,999.000,0.0,99.0
2025,1,1,5,0,?9?9?9?9E0?9?9?9?9*9?9?9?9?9*9?9*9*9?9*_?9?9*9?9*9,21.6,18.5,82,98090,0,1414,387,20,0,0,2354,0,0,0,180,1.3,7,7,777.7,77777,9,999999999,0,0.0000,0,0,999.000,0.0,99.0
2025,1,1,6,0,?9?9?9?9E0?9?9?9?9*9?9?9?9?9*9?9*9*9?9*_?9?9*9?9*9,21.3,18.5,84,98090,98,1414,386,0,0,0,0,0,0,0,180,1.3,7,7,777.7,77777,9,999999999,0,0.0000,0,0,999.000,0.0,99.0
2025,1,1,7,0,?9?9?9?9E0?9?9?9?9*9?9?9?9?9*9?9*9*9?9*_?9?9*9?9*9,21.0,18.5,85,98090,410,1414,384,98,0,98,11772,0,10791,108,180,1.3,7,7,777.7,77777,9,999999999,0,0.0000,0,0,999.000,0.0,99.0
2025,1,1,8,0,?9?9?9?9E0?9?9?9?9*9?9?9?9?9*9?9*9*9?9*_?9?9*9?9*9,23.6,18.2,71,98090,711,1414,380,354,284,211,42442,26977,23201,134,180,1.3,2,2,777.7,77777,9,999999999,0,0.0000,0,0,999.000,0.0,99.0
2025,1,1,9,0,?9?9?9?9E0?9?9?9?9*9?9?9?9?9*9?9*9*9?9*_?9?9*9?9*9,25.1,18.1,65,98090,978,1414,375,610,494,268,73195,46971,29475,123,180,1.3,0,0,777.7,77777,9,999999999,0,0.0000,0,0,999.000,0.0,99.0
2025,1,1,10,0,?9?9?9?9E0?9?9?9?9*9?9?9?9?9*9?9*9*9?9*_?9?9*9?9*9,26.5,17.9,59,98090,1193,1414,382,834,639,295,100090,60679,32498,112,180,2.0,0,0,777.7,77777,9,999999999,0,0.0000,0,0,999.000,0.0,99.0
2025,1,1,11,0,?9?9?9?9E0?9?9?9?9*9?9?9?9?9*9?9*9*9?9*_?9?9*9?9*9,27.7,17.8,54,98090,1339,1414,388,998,790,249,119701,75044,27427,84,180,3.2,0,0,777.7,77777,9,999999999,0,0.0000,0,0,999.000,0.0,99.0
2025,1,1,12,0,?9?9?9?9E0?9?9?9?9*9?9?9?9?9*9?9*9*9?9*_?9?9*9?9*9,28.7,17.7,51,98090,1409,1414,393,1098,910,191,131741,86467,21030,61,180,3.6,0,0,777.7,77777,9,999999999,0,0.0000,0,0,999.000,0.0,99.0
2025,1,1,13,0,?9?9?9?9E0?9?9?9?9*9?9?9?9?9*9?9*9*9?9*_?9?9*9?9*9,29.5,17.6,48,98090,1396,1414,397,1128,892,248,135371,84753,27234,80,180,3.7,0,0,777.7,77777,9,999999999,0,0.0000,0,0,999.000,0.0,99.0
2025,1,1,14,0,?9?9?9?9E0?9?9?9?9*9?9?9?9?9*9?9*9*9?9*_?9?9*9?9*9,30.0,17.6,47,98090,1301,1414,399,1075,950,202,129059,90204,22187,70,180,4.2,0,0,777.7,77777,9,999999999,0,0.0000,0,0,999.000,0.0,99.0
2025,1,1,15,0,?9?9?9?9E0?9?9?9?9*9?9?9?9?9*9?9*9*9?9*_?9?9*9?9*9,30.2,17.5,46,98090,1132,1414,401,954,974,175,114521,92530,19209,69,180,4.9,0,0,777.7,77777,9,999999999,0,0.0000,0,0,999.000,0.0,99.0
2025,1,1,16,0,?9?9?9?9E0?9?9?9?9*9?9?9?9?9*9?9*9*9?9*_?9?9*9?9*9,30.1,17.5,46,98090,900,1414,400,762,850,222,91464,80754,24378,111,180,5.2,0,0,777.7,77777,9,999999999,0,0.0000,0,0,999.000,0.0,99.0
2025,1,1,17,0,?9?9?9?9E0?9?9?9?9*9?9?9?9?9*9?9*9*9?9*_?9?9*9?9*9,29.7,17.6,48,98090,620,1414,398,528,830,164,63302,78827,18075,119,180,4.5,0,0,777.7,77777,9,999999999,0,0.0000,0,0,999.000,0.0,99.0
2025,1,1,18,0,?9?9?9?9E0?9?9?9?9*9?9?9?9?9*9?9*9*9?9*_?9?9*9?9*9,28.8,17.7,50,98090,312,1414,414,264,660,120,31739,62732,13162,174,180,3.4,4,4,777.7,77777,9,999999999,0,0.0000,0,0,999.000,0.0,99.0
2025,1,1,19,0,?9?9?9?9E0?9?9?9?9*9?9?9?9?9*9?9*9*9?9*_?9?9*9?9*9,27.8,17.8,54,98090,7,1414,427,33,0,0,3934,0,0,0,180,1.9,8,8,777.7,77777,9,999999999,0,0.0000,0,0,999.000,0.0,99.0
2025,1,1,20,0,?9?9?9?9E0?9?9?9?9*9?9?9?9?9*9?9*9*9?9*_?9?9*9?9*9,27.0,17.9,57,98090,0,1414,423,0,0,0,0,0,0,0,180,2.0,8,8,777.7,77777,9,999999999,0,0.0000,0,0,999.000,0.0,99.0
2025,1,1,21,0,?9?9?9?9E0?9?9?9?9*9?9?9?9?9*9?9*9*9?9*_?9?9*9?9*9,26.3,18.0,60,98090,0,1414,418,0,0,0,0,0,0,0,180,1.3,8,8,777.7,77777,9,999999999,0,0.0000,0,0,999.000,0.0,99.0
2025,1,1,22,0,?9?9?9?9E0?9?9?9?9*9?9?9?9?9*9?9*9*9?9*_?9?9*9?9*9,25.5,18.0,63,98090,0,1414,414,0,0,0,0,0,0,0,180,1.3,8,8,777.7,77777,9,999999999,0,0.0000,0,0,999.000,0.0,99.0
2025,1,1,23,0,?9?9?9?9E0?9?9?9?9*9?9?9?9?9*9?9*9*9?9*_?9?9*9?9*9,24.8,18.1,66,98090,0,1414,410,0,0,0,0,0,0,0,180,1.3,8,8,777.7,77777,9,999999999,0,0.0000,0,0,999.000,0.0,99.0
2025,1,1,24,0,?9?9?9?9E0?9?9?9?9*9?9?9?9?9*9?9*9*9?9*_?9?9*9?9*9,24.0,20.1,78,98090,0,1414,409,0,0,0,0,0,0,0,180,1.0,8,8,777.7,77777,9,999999999,0,0.0000,0,0,999.000,0.0,99.0
2025,1,2,1,0,?9?9?9?9E0?9?9?9?9*9?9?9?9?9*9?9*9*9?9*_?9?9*9?9*9,23.7,20.0,79,98090,0,1414,406,0,0,0,0,0,0,0,180,1.0,8,8,777.7,77777,9,999999999,0,0.0000,0,0,999.000,0.0,99.0
2025,1,2,2,0,?9?9?9?9E0?9?9?9?9*9?9?9?9?9*9?9*9*9?9*_?9?9*9?9*9,23.3,19.8,80,98090,0,1414,398,0,0,0,0,0,0,0,180,1.0,7,7,777.7,77777,9,999999999,0,0.0000,0,0,999.000,0.0,99.0
2025,1,2,3,0,?9?9?9?9E0?9?9?9?9*9?9?9?9?9*9?9*9*9?9*_?9?9*9?9*9,22.9,19.6,81,98090,0,1414,396,0,0,0,0,0,0,0,180,1.0,7,7,777.7,77777,9,999999999,0,0.0000,0,0,999.000,0.0,99.0
2025,1,2,4,0,?9?9?9?9E0?9?9?9?9*9?9?9?9?9*9?9*9*9?9*_?9?9*9?9*9,22.5,19.4,82,98090,0,1414,393,0,0,0,0,0,0,0,180,1.0,7,7,777.7,77777,9,999999999,0,0.0000,0,0,999.000,0.0,99.0
2025,1,2,5,0,?9?9?9?9E0?9?9?9?9*9?9?9?9?9*9?9*9*9?9*_?9?9*9?9*9,22.2,19.3,83,98090,0,1414,392,0,0,0,0,0,0,0,180,1.0,7,7,777.7,77777,9,999999999,0,0.0000,0,0,999.000,0.0,99.0
2025,1,2,6,0,?9?9?9?9E0?9?9?9?9*9?9?9?9?9*9?9*9*9?9*_?9?9*9?9*9,22.0,19.1,84,98090,94,1414,390,0,0,0,0,0,0,0,180,1.0,7,7,777.7,77777,9,999999999,0,0.0000,0,0,999.000,0.0,99.0
2025,1,2,7,0,?9?9?9?9E0?9?9?9?9*9?9?9?9?9*9?9*9*9?9*_?9?9*9?9*9,21.7,19.0,84,98090,407,1414,389,99,0,99,11875,0,10886,110,180,1.0,7,7,777.7,77777,9,999999999,0,0.0000,0,0,999.000,0.0,99.0
2025,1,2,8,0,?9?9?9?9E0?9?9?9?9*9?9?9?9?9*9?9*9*9?9*_?9?9*9?9*9,24.1,20.1,78,98090,709,1414,372,358,301,207,42948,28633,22764,132,180,1.0,0,0,777.7,77777,9,999999999,0,0.0000,0,0,999.000,0.0,99.0
2025,1,2,9,0,?9?9?9?9E0?9?9?9?9*9?9?9?9?9*9?9*9*9?9*_?9?9*9?9*9,25.4,20.8,75,98090,976,1414,380,616,518,258,73885,49234,28381,119,180,1.0,0,0,777.7,77777,9,999999999,0,0.0000,0,0,999.000,0.0,99.0
2025,1,2,10,0,?9?9?9?9E0?9?9?9?9*9?9?9?9?9*9?9*9*9?9*_?9?9*9?9*9,26.7,21.3,72,98090,1191,1414,387,844,671,279,101227,63730,30641,105,180,1.4,0,0,777.7,77777,9,999999999,0,0.0000,0,0,999.000,0.0,99.0
2025,1,2,11,0,?9?9?9?9E0?9?9?9?9*9?9?9?9?9*9?9*9*9?9*_?9?9*9?9*9,27.8,21.8,69,98090,1338,1414,393,1015,827,232,121796,78547,25559,78,180,2.2,0,0,777.7,77777,9,999999999,0,0.0000,0,0,999.000,0.0,99.0
2025,1,2,12,0,?9?9?9?9E0?9?9?9?9*9?9?9?9?9*9?9*9*9?9*_?9?9*9?9*9,28.7,22.2,67,98090,1408,1414,398,1117,965,156,134004,91636,17155,50,180,3.2,0,0,777.7,77777,9,999999999,0,0.0000,0,0,999.000,0.0,99.0
2025,1,2,13,0,?9?9?9?9E0?9?9?9?9*9?9?9?9?9*9?9*9*9?9*_?9?9*9?9*9,29.4,22.5,66,98090,1396,1414,402,1138,910,240,136597,86419,26420,77,180,3.9,0,0,777.7,77777,9,999999999,0,0.0000,0,0,999.000,0.0,99.0
2025,1,2,14,0,?9?9?9?9E0?9?9?9?9*9?9?9?9?9*9?9*9*9?9*_?9?9*9?9*9,29.8,22.6,65,98090,1302,1414,405,1092,966,203,131053,91738,22303,70,180,4.4,0,0,777.7,77777,9,999999999,0,0.0000,0,0,999.000,0.0,99.0
2025,1,2,15,0,?9?9?9?9E0?9?9?9?9*9?9?9?9?9*9?9*9*9?9*_?9?9*9?9*9,30.1,22.7,64,98090,1134,1414,406,971,824,311,116569,78309,34174,123,180,5.1,0,0,777.7,77777,9,999999999,0,0.0000,0,0,999.000,0.0,99.0
2025,1,2,16,0,?9?9?9?9E0?9?9?9?9*9?9?9?9?9*9?9*9*9?9*_?9?9*9?9*9,30.0,22.7,64,98090,901,1414,406,785,849,244,94205,80614,26878,122,180,5.6,0,0,777.7,77777,9,999999999,0,0.0000,0,0,999.000,0.0,99.0
2025,1,2,17,0,?9?9?9?9E0?9?9?9?9*9?9?9?9?9*9?9*9*9?9*_?9?9*9?9*9,29.6,22.5,65,98090,622,1414,404,549,823,188,65915,78229,20654,136,180,5.1,0,0,777.7,77777,9,999999999,0,0.0000,0,0,999.000,0.0,99.0
2025,1,2,18,0,?9?9?9?9E0?9?9?9?9*9?9?9?9?9*9?9*9*9?9*_?9?9*9?9*9,28.9,22.2,67,98090,314,1414,413,284,644,142,34070,61160,15609,205,180,4.0,2,2,777.7,77777,9,999999999,0,0.0000,0,0,999.000,0.0,99.0
2025,1,2,19,0,?9?9?9?9E0?9?9?9?9*9?9?9?9?9*9?9*9*9?9*_?9?9*9?9*9,27.9,21.9,69,98090,8,1414,433,43,0,0,5167,0,0,0,180,3.0,8,8,777.7,77777,9,999999999,0,0.0000,0,0,999.000,0.0,99.0
2025,1,2,20,0,?9?9?9?9E0?9?9?9?9*9?9?9?9?9*9?9*9*9?9*_?9?9*9?9*9,27.2,21.5,71,98090,0,1414,428,0,0,0,0,0,0,0,180,2.6,8,8,777.7,77777,9,999999999,0,0.0000,0,0,999.000,0.0,99.0
2025,1,2,21,0,?9?9?9?9E0?9?9?9?9*9?9?9?9?9*9?9*9*9?9*_?9?9*9?9*9,26.4,21.2,73,98090,0,1414,424,0,0,0,0,0,0,0,180,1.9,8,8,777.7,77777,9,999999999,0,0.0000,0,0,999.000,0.0,99.0
2025,1,2,22,0,?9?9?9?9E0?9?9?9?9*9?9?9?9?9*9?9*9*9?9*_?9?9*9?9*9,25.7,20.9,74,98090,0,1414,419,0,0,0,0,0,0,0,180,1.6,8,8,777.7,77777,9,999999999,0,0.0000,0,0,999.000,0.0,99.0
2025,1,2,23,0,?9?9?9?9E0?9?9?9?9*9?9?9?9?9*9?9*9*9?9*_?9?9*9?9*9,24.9,20.5,76,98090,0,1414,414,0,0,0,0,0,0,0,180,1.0,8,8,777.7,77777,9,999999999,0,0.0000,0,0,999.000,0.0,99.0
2025,1,2,24,0,?9?9?9?9E0?9?9?9?9*9?9?9?9?9*9?9*9*9?9*_?9?9*9?9*9,24.2,20.6,80,98090,0,1414,410,0,0,0,0,0,0,0,180,1.5,8,8,777.7,77777,9,999999999,0,0.0000,0,0,999.000,0.0,99.0
2025,1,3,1,0,?9?9?9?9E0?9?9?9?9*9?9?9?9?9*9?9*9*9?9*_?9?9*9?9*9,23.8,20.5,81,98090,0,1414,408,0,0,0,0,0,0,0,180,1.5,8,8,777.7,77777,9,999999999,0,0.0000,0,0,999.000,0.0,99.0
2025,1,3,2,0,?9?9?9?9E0?9?9?9?9*9?9?9?9?9*9?9*9*9?9*_?9?9*9?9*9,23.4,20.4,83,98090,0,1414,406,0,0,0,0,0,0,0,180,1.5,8,8,777.7,77777,9,999999999,0,0.0000,0,0,999.000,0.0,99.0
2025,1,3,3,0,?9?9?9?9E0?9?9?9?9*9?9?9?9?9*9?9*9*9?9*_?9?9*9?9*9,23.1,20.3,84,98090,0,1414,404,0,0,0,0,0,0,0,180,1.5,8,8,777.7,77777,9,999999999,0,0.0000,0,0,999.000,0.0,99.0
2025,1,3,4,0,?9?9?9?9E0?9?9?9?9*9?9?9?9?9*9?9*9*9?9*_?9?9*9?9*9,22.7,20.2,85,98090,0,1414,401,0,0,0,0,0,0,0,180,1.5,8,8,777.7,77777,9,999999999,0,0.0000,0,0,999.000,0.0,99.0
2025,1,3,5,0,?9?9?9?9E0?9?9?9?9*9?9?9?9?9*9?9*9*9?9*_?9?9*9?9*9,22.4,20.1,86,98090,0,1414,400,0,0,0,0,0,0,0,180,1.5,8,8,777.7,77777,9,999999999,0,0.0000,0,0,999.000,0.0,99.0
2025,1,3,6,0,?9?9?9?9E0?9?9?9?9*9?9?9?9?9*9?9*9*9?9*_?9?9*9?9*9,22.1,20.0,87,98090,91,1414,398,0,0,0,0,0,0,0,180,1.5,8,8,777.7,77777,9,999999999,0,0.0000,0,0,999.000,0.0,99.0
2025,1,3,7,0,?9?9?9?9E0?9?9?9?9*9?9?9?9?9*9?9*9*9?9*_?9?9*9?9*9,21.9,19.9,88,98090,404,1414,397,70,0,70,8418,0,7717,78,180,1.5,8,8,777.7,77777,9,999999999,0,0.0000,0,0,999.000,0.0,99.0
2025,1,3,8,0,?9?9?9?9E0?9?9?9?9*9?9?9?9?9*9?9*9*9?9*_?9?9*9?9*9,23.7,20.5,82,98090,706,1414,401,258,73,222,30986,6892,24422,142,180,1.5,7,7,777.7,77777,9,999999999,0,0.0000,0,0,999.000,0.0,99.0
2025,1,3,9,0,?9?9?9?9E0?9?9?9?9*9?9?9?9?9*9?9*9*9?9*_?9?9*9?9*9,24.7,20.8,78,98090,974,1414,402,449,128,361,53850,12150,39673,167,180,1.5,6,6,777.7,77777,9,999999999,0,0.0000,0,0,999.000,0.0,99.0
2025,1,3,10,0,?9?9?9?9E0?9?9?9?9*9?9?9?9?9*9?9*9*9?9*_?9?9*9?9*9,25.7,21.1,75,98090,1190,1414,404,614,233,418,73658,22106,45989,158,180,1.5,5,5,777.7,77777,9,999999999,0,0.0000,0,0,999.000,0.0,99.0
2025,1,3,11,0,?9?9?9?9E0?9?9?9?9*9?9?9?9?9*9?9*9*9?9*_?9?9*9?9*9,26.5,21.4,73,98090,1338,1414,409,739,161,586,88672,15326,64496,197,180,2.0,5,5,777.7,77777,9,999999999,0,0.0000,0,0,999.000,0.0,99.0
2025,1,3,12,0,?9?9?9?9E0?9?9?9?9*9?9?9?9?9*9?9*9*9?9*_?9?9*9?9*9,27.2,21.6,71,98090,1408,1414,413,814,333,483,97734,31624,53122,154,180,2.4,5,5,777.7,77777,9,999999999,0,0.0000,0,0,999.000,0.0,99.0
2025,1,3,13,0,?9?9?9?9E0?9?9?9?9*9?9?9?9?9*9?9*9*9?9*_?9?9*9?9*9,27.8,21.7,69,98090,1397,1414,416,835,381,458,100178,36201,50432,148,180,3.1,5,5,777.7,77777,9,999999999,0,0.0000,0,0,999.000,0.0,99.0
2025,1,3,14,0,?9?9?9?9E0?9?9?9?9*9?9?9?9?9*9?9*9*9?9*_?9?9*9?9*9,28.1,21.8,68,98090,1303,1414,418,799,451,382,95828,42891,42069,132,180,4.9,5,5,777.7,77777,9,999999999,0,0.0000,0,0,999.000,0.0,99.0
2025,1,3,15,0,?9?9?9?9E0?9?9?9?9*9?9?9?9?9*9?9*9*9?9*_?9?9*9?9*9,28.3,21.9,68,98090,1135,1414,419,708,503,305,84997,47787,33506,121,180,4.8,5,5,777.7,77777,9,999999999,0,0.0000,0,0,999.000,0.0,99.0
2025,1,3,16,0,?9?9?9?9E0?9?9?9?9*9?9?9?9?9*9?9*9*9?9*_?9?9*9?9*9,28.2,21.9,68,98090,903,1414,419,571,581,200,68490,55205,21977,100,180,4.6,5,5,777.7,77777,9,999999999,0,0.0000,0,0,999.000,0.0,99.0
2025,1,3,17,0,?9?9?9?9E0?9?9?9?9*9?9?9?9?9*9?9*9*9?9*_?9?9*9?9*9,27.9,21.8,69,98090,623,1414,421,397,604,131,47603,57357,14395,95,180,4.7,6,6,777.7,77777,9,999999999,0,0.0000,0,0,999.000,0.0,99.0
2025,1,3,18,0,?9?9?9?9E0?9?9?9?9*9?9?9?9?9*9?9*9*9?9*_?9?9*9?9*9,27.4,21.6,70,98090,315,1414,423,203,584,73,24326,55442,8061,105,180,3.4,7,7,777.7,77777,9,999999999,0,0.0000,0,0,999.000,0.0,99.0
2025,1,3,19,0,?9?9?9?9E0?9?9?9?9*9?9?9?9?9*9?9*9*9?9*_?9?9*9?9*9,26.6,21.4,72,98090,9,1414,425,29,0,0,3439,0,0,0,180,2.1,8,8,777.7,77777,9,999999999,0,0.0000,0,0,999.000,0.0,99.0
2025,1,3,20,0,?9?9?9?9E0?9?9?9?9*9?9?9?9?9*9?9*9*9?9*_?9?9*9?9*9,26.1,21.2,74,98090,0,1414,422,0,0,0,0,0,0,0,180,1.5,8,8,777.7,77777,9,999999999,0,0.0000,0,0,999.000,0.0,99.0
2025,1,3,21,0,?9?9?9?9E0?9?9?9?9*9?9?9?9?9*9?9*9*9?9*_?9?9*9?9*9,25.5,21.0,76,98090,0,1414,418,0,0,0,0,0,0,0,180,1.5,8,8,777.7,77777,9,999999999,0,0.0000,0,0,999.000,0.0,99.0
2025,1,3,22,0,?9?9?9?9E0?9?9?9?9*9?9?9?9?9*9?9*9*9?9*_?9?9*9?9*9,25.0,20.9,78,98090,0,1414,415,0,0,0,0,0,0,0,180,1.5,8,8,777.7,77777,9,999999999,0,0.0000,0,0,999.000,0.0,99.0
2025,1,3,23,0,?9?9?9?9E0?9?9?9?9*9?9?9?9?9*9?9*9*9?9*_?9?9*9?9*9,24.4,20.7,79,98090,0,1414,412,0,0,0,0,0,0,0,180,1.5,8,8,777.7,77777,9,999999999,0,0.0000,0,0,999.000,0.0,99.0
2025,1,3,24,0,?9?9?9?9E0?9?9?9?9*9?9?9?9?9*9?9*9*9?9*_?9?9*9?9*9,23.9,19.8,77,98090,0,1414,407,0,0,0,0,0,0,0,180,1.1,8,8,777.7,77777,9,999999999,0,0.0000,0,0,999.000,0.0,99.0
2025,1,4,1,0,?9?9?9?9E0?9?9?9?9*9?9?9?9?9*9?9*9*9?9*_?9?9*9?9*9,23.6,19.7,78,98090,0,1414,406,0,0,0,0,0,0,0,180,1.1,8,8,777.7,77777,9,999999999,0,0.0000,0,0,999.000,0.0,99.0
2025,1,4,2,0,?9?9?9?9E0?9?9?9?9*9?9?9?9?9*9?9*9*9?9*_?9?9*9?9*9,23.3,19.7,79,98090,0,1414,398,0,0,0,0,0,0,0,180,1.1,7,7,777.7,77777,9,999999999,0,0.0000,0,0,999.000,0.0,99.0
2025,1,4,3,0,?9?9?9?9E0?9?9?9?9*9?9?9?9?9*9?9*9*9?9*_?9?9*9?9*9,23.0,19.6,81,98090,0,1414,396,0,0,0,0,0,0,0,180,1.1,7,7,777.7,77777,9,999999999,0,0.0000,0,0,999.000,0.0,99.0
2025,1,4,4,0,?9?9?9?9E0?9?9?9?9*9?9?9?9?9*9?9*9*9?9*_?9?9*9?9*9,22.8,19.6,82,98090,0,1414,395,0,0,0,0,0,0,0,180,1.1,7,7,777.7,77777,9,999999999,0,0.0000,0,0,999.000,0.0,99.0
2025,1,4,5,0,?9?9?9?9E0?9?9?9?9*9?9?9?9?9*9?9*9*9?9*_?9?9*9?9*9,22.5,19.5,83,98090,0,1414,394,0,0,0,0,0,0,0,180,1.1,7,7,777.7,77777,9,999999999,0,0.0000,0,0,999.000,0.0,99.0
2025,1,4,6,0,?9?9?9?9E0?9?9?9?9*9?9?9?9?9*9?9*9*9?9*_?9?9*9?9*9,22.4,19.5,84,98090,88,1414,393,0,0,0,0,0,0,0,180,1.1,7,7,777.7,77777,9,999999999,0,0.0000,0,0,999.000,0.0,99.0
2025,1,4,7,0,?9?9?9?9E0?9?9?9?9*9?9?9?9?9*9?9*9*9?9*_?9?9*9?9*9,22.2,19.5,84,98090,401,1414,392,104,10,101,12490,997,11122,114,180,1.1,7,7,777.7,77777,9,999999999,0,0.0000,0,0,999.000,0.0,99.0
2025,1,4,8,0,?9?9?9?9E0?9?9?9?9*9?9?9?9?9*9?9*9*9?9*_?9?9*9?9*9,24.2,19.8,76,98090,703,1414,373,390,352,215,46756,33393,23639,138,180,1.1,0,0,777.7,77777,9,999999999,0,0.0000,0,0,999.000,0.0,99.0
2025,1,4,9,0,?9?9?9?9E0?9?9?9?9*9?9?9?9?9*9?9*9*9?9*_?9?9*9?9*9,25.4,20.0,72,98090,972,1414,379,677,706,191,81200,67098,21043,89,180,1.1,0,0,777.7,77777,9,999999999,0,0.0000,0,0,999.000,0.0,99.0
2025,1,4,10,0,?9?9?9?9E0?9?9?9?9*9?9?9?9?9*9?9*9*9?9*_?9?9*9?9*9,26.5,20.1,68,98090,1188,1414,384,926,937,138,111065,89017,15219,52,180,1.5,0,0,777.7,77777,9,999999999,0,0.0000,0,0,999.000,0.0,99.0
2025,1,4,11,0,?9?9?9?9E0?9?9?9?9*9?9?9?9?9*9?9*9*9?9*_?9?9*9?9*9,27.5,20.3,64,98090,1337,1414,390,1111,821,334,133272,78007,36778,113,180,2.9,0,0,777.7,77777,9,999999999,0,0.0000,0,0,999.000,0.0,99.0
2025,1,4,12,0,?9?9?9?9E0?9?9?9?9*9?9?9?9?9*9?9*9*9?9*_?9?9*9?9*9,28.2,20.4,62,98090,1408,1414,394,1219,984,239,146242,93436,26323,76,180,3.2,0,0,777.7,77777,9,999999999,0,0.0000,0,0,999.000,0.0,99.0
2025,1,4,13,0,?9?9?9?9E0?9?9?9?9*9?9?9?9?9*9?9*9*9?9*_?9?9*9?9*9,28.8,20.5,60,98090,1397,1414,397,1239,993,257,148637,94371,28295,83,180,3.8,0,0,777.7,77777,9,999999999,0,0.0000,0,0,999.000,0.0,99.0
2025,1,4,14,0,?9?9?9?9E0?9?9?9?9*9?9?9?9?9*9?9*9*9?9*_?9?9*9?9*9,29.2,20.5,59,98090,1304,1414,399,1174,990,261,140884,94058,28687,90,180,4.4,0,0,777.7,77777,9,999999999,0,0.0000,0,0,999.000,0.0,99.0
2025,1,4,15,0,?9?9?9?9E0?9?9?9?9*9?9?9?9?9*9?9*9*9?9*_?9?9*9?9*9,29.4,20.6,59,98090,1136,1414,400,1025,975,242,123053,92615,26627,96,180,5.0,0,0,777.7,77777,9,999999999,0,0.0000,0,0,999.000,0.0,99.0
2025,1,4,16,0,?9?9?9?9E0?9?9?9?9*9?9?9?9?9*9?9*9*9?9*_?9?9*9?9*9,29.3,20.5,59,98090,905,1414,400,808,899,233,96988,85379,25681,116,180,4.7,0,0,777.7,77777,9,999999999,0,0.0000,0,0,999.000,0.0,99.0
2025,1,4,17,0,?9?9?9?9E0?9?9?9?9*9?9?9?9?9*9?9*9*9?9*_?9?9*9?9*9,28.9,20.5,60,98090,625,1414,397,545,874,159,65434,83021,17540,115,180,4.5,0,0,777.7,77777,9,999999999,0,0.0000,0,0,999.000,0.0,99.0
2025,1,4,18,0,?9?9?9?9E0?9?9?9?9*9?9?9?9?9*9?9*9*9?9*_?9?9*9?9*9,28.2,20.4,62,98090,317,1414,414,262,666,113,31384,63292,12431,161,180,3.8,4,4,777.7,77777,9,999999999,0,0.0000,0,0,999.000,0.0,99.0
2025,1,4,19,0,?9?9?9?9E0?9?9?9?9*9?9?9?9?9*9?9*9*9?9*_?9?9*9?9*9,27.4,20.3,65,98090,10,1414,428,45,0,0,5395,0,0,0,180,3.3,8,8,777.7,77777,9,999999999,0,0.0000,0,0,999.000,0.0,99.0
2025,1,4,20,0,?9?9?9?9E0?9?9?9?9*9?9?9?9?9*9?9*9*9?9*_?9?9*9?9*9,26.7,20.2,67,98090,0,1414,424,0,0,0,0,0,0,0,180,2.7,8,8,777.7,77777,9,999999999,0,0.0000,0,0,999.000,0.0,99.0
2025,1,4,21,0,?9?9?9?9E0?9?9?9?9*9?9?9?9?9*9?9*9*9?9*_?9?9*9?9*9,26.1,20.1,69,98090,0,1414,420,0,0,0,0,0,0,0,180,1.8,8,8,777.7,77777,9,999999999,0,0.0000,0,0,999.000,0.0,99.0
2025,1,4,22,0,?9?9?9?9E0?9?9?9?9*9?9?9?9?9*9?9*9*9?9*_?9?9*9?9*9,25.4,20.0,71,98090,0,1414,416,0,0,0,0,0,0,0,180,1.6,8,8,777.7,77777,9,999999999,0,0.0000,0,0,999.000,0.0,99.0
2025,1,4,23,0,?9?9?9?9E0?9?9?9?9*9?9?9?9?9*9?9*9*9?9*_?9?9*9?9*9,24.7,19.9,74,98090,0,1414,412,0,0,0,0,0,0,0,180,1.1,8,8,777.7,77777,9,999999999,0,0.0000,0,0,999.000,0.0,99.0
2025,1,4,24,0,?9?9?9?9E0?9?9?9?9*9?9?9?9?9*9?9*9*9?9*_?9?9*9?9*9,24.1,20.1,80,98090,0,1414,409,0,0,0,0,0,0,0,180,1.4,8,8,777.7,77777,9,999999999,0,0.0000,0,0,999.000,0.1,99.0
2025,1,5,1,0,?9?9?9?9E0?9?9?9?9*9?9?9?9?9*9?9*9*9?9*_?9?9*9?9*9,23.8,20.2,81,98090,0,1414,407,0,0,0,0,0,0,0,180,1.3,8,8,777.7,77777,9,999999999,0,0.0000,0,0,999.000,0.0,99.0
2025,1,5,2,0,?9?9?9?9E0?9?9?9?9*9?9?9?9?9*9?9*9*9?9*_?9?9*9?9*9,23.4,20.2,78,98090,0,1414,399,0,0,0,0,0,0,0,180,1.4,7,7,777.7,77777,9,999999999,0,0.0000,0,0,999.000,0.0,99.0
2025,1,5,3,0,?9?9?9?9E0?9?9?9?9*9?9?9?9?9*9?9*9*9?9*_?9?9*9?9*9,23.1,20.3,80,98090,0,1414,397,0,0,0,0,0,0,0,180,1.5,7,7,777.7,77777,9,999999999,0,0.0000,0,0,999.000,0.0,99.0
2025,1,5,4,0,?9?9?9?9E0?9?9?9?9*9?9?9?9?9*9?9*9*9?9*_?9?9*9?9*9,22.8,20.3,82,98090,0,1414,396,0,0,0,0,0,0,0,180,1.3,7,7,777.7,77777,9,999999999,0,0.0000,0,0,999.000,0.0,99.0
2025,1,5,5,0,?9?9?9?9E0?9?9?9?9*9?9?9?9?9*9?9*9*9?9*_?9?9*9?9*9,22.5,20.4,83,98090,0,1414,394,0,0,0,0,0,0,0,180,1.3,7,7,777.7,77777,9,999999999,0,0.0000,0,0,999.000,0.0,99.0
2025,1,5,6,0,?9?9?9?9E0?9?9?9?9*9?9?9?9?9*9?9*9*9?9*_?9?9*9?9*9,22.3,20.4,85,98090,85,1414,393,0,0,0,0,0,0,0,180,1.3,7,7,777.7,77777,9,999999999,0,0.0000,0,0,999.000,0.0,99.0
2025,1,5,7,0,?9?9?9?9E0?9?9?9?9*9?9?9?9?9*9?9*9*9?9*_?9?9*9?9*9,22.0,20.4,90,98090,398,1414,392,90,0,90,10859,0,9954,103,180,1.3,7,7,777.7,77777,9,999999999,0,0.0000,0,0,999.000,0.0,99.0
2025,1,5,8,0,?9?9?9?9E0?9?9?9?9*9?9?9?9?9*9?9*9*9?9*_?9?9*9?9*9,24.0,20.1,75,98090,701,1414,379,347,284,207,41688,26969,22751,133,180,1.3,1,1,777.7,77777,9,999999999,0,0.0000,0,0,999.000,0.0,99.0
2025,1,5,9,0,?9?9?9?9E0?9?9?9?9*9?9?9?9?9*9?9*9*9?9*_?9?9*9?9*9,25.2,19.9,70,98090,970,1414,378,606,501,262,72690,47569,28865,122,180,2.3,0,0,777.7,77777,9,999999999,0,0.0000,0,0,999.000,0.0,99.0
2025,1,5,10,0,?9?9?9?9E0?9?9?9?9*9?9?9?9?9*9?9*9*9?9*_?9?9*9?9*9,26.3,19.8,65,98090,1187,1414,383,830,642,291,99608,61027,32020,110,180,2.6,0,0,777.7,77777,9,999999999,0,0.0000,0,0,999.000,0.0,99.0
2025,1,5,11,0,?9?9?9?9E0?9?9?9?9*9?9?9?9?9*9?9*9*9?9*_?9?9*9?9*9,27.3,19.6,61,98090,1336,1414,388,1001,812,234,120091,77130,25709,79,180,3.3,0,0,777.7,77777,9,999999999,0,0.0000,0,0,999.000,0.0,99.0
2025,1,5,12,0,?9?9?9?9E0?9?9?9?9*9?9?9?9?9*9?9*9*9?9*_?9?9*9?9*9,28.1,19.5,59,98090,1408,1414,392,1101,921,184,132094,87488,20224,59,180,4.0,0,0,777.7,77777,9,999999999,0,0.0000,0,0,999.000,0.0,99.0
2025,1,5,13,0,?9?9?9?9E0?9?9?9?9*9?9?9?9?9*9?9*9*9?9*_?9?9*9?9*9,28.7,19.4,56,98090,1397,1414,395,1129,891,249,135510,84646,27357,80,180,4.4,0,0,777.7,77777,9,999999999,0,0.0000,0,0,999.000,0.0,99.0
2025,1,5,14,0,?9?9?9?9E0?9?9?9?9*9?9?9?9?9*9?9*9*9?9*_?9?9*9?9*9,29.1,19.3,55,98090,1305,1414,397,1077,947,203,129280,89988,22327,70,180,4.8,0,0,777.7,77777,9,999999999,0,0.0000,0,0,999.000,0.0,99.0
2025,1,5,15,0,?9?9?9?9E0?9?9?9?9*9?9?9?9?9*9?9*9*9?9*_?9?9*9?9*9,29.2,19.3,54,98090,1138,1414,398,948,968,169,113736,91960,18595,67,180,5.1,0,0,777.7,77777,9,999999999,0,0.0000,0,0,999.000,0.0,99.0
2025,1,5,16,0,?9?9?9?9E0?9?9?9?9*9?9?9?9?9*9?9*9*9?9*_?9?9*9?9*9,29.2,19.3,55,98090,906,1414,398,755,850,211,90600,80722,23171,105,180,5.3,0,0,777.7,77777,9,999999999,0,0.0000,0,0,999.000,0.0,99.0
2025,1,5,17,0,?9?9?9?9E0?9?9?9?9*9?9?9?9?9*9?9*9*9?9*_?9?9*9?9*9,28.8,19.4,56,98090,627,1414,396,518,834,149,62192,79186,16423,107,180,4.5,0,0,777.7,77777,9,999999999,0,0.0000,0,0,999.000,0.0,99.0
2025,1,5,18,0,?9?9?9?9E0?9?9?9?9*9?9?9?9?9*9?9*9*9?9*_?9?9*9?9*9,28.2,19.5,58,98090,318,1414,416,261,593,128,31352,56373,14118,182,180,2.9,5,5,777.7,77777,9,999999999,0,0.0000,0,0,999.000,0.0,99.0
2025,1,5,19,0,?9?9?9?9E0?9?9?9?9*9?9?9?9?9*9?9*9*9?9*_?9?9*9?9*9,27.3,19.6,61,98090,11,1414,427,33,0,0,4000,0,0,0,180,1.6,8,8,777.7,77777,9,999999999,0,0.0000,0,0,999.000,0.0,99.0
2025,1,5,20,0,?9?9?9?9E0?9?9?9?9*9?9?9?9?9*9?9*9*9?9*_?9?9*9?9*9,26.7,19.7,68,98090,0,1414,423,0,0,0,0,0,0,0,180,1.3,8,8,777.7,77777,9,999999999,0,0.0000,0,0,999.000,0.0,99.0
2025,1,5,21,0,?9?9?9?9E0?9?9?9?9*9?9?9?9?9*9?9*9*9?9*_?9?9*9?9*9,26.1,19.8,70,98090,0,1414,420,0,0,0,0,0,0,0,180,1.3,8,8,777.7,77777,9,999999999,0,0.0000,0,0,999.000,0.0,99.0
2025,1,5,22,0,?9?9?9?9E0?9?9?9?9*9?9?9?9?9*9?9*9*9?9*_?9?9*9?9*9,25.5,19.9,73,98090,0,1414,417,0,0,0,0,0,0,0,180,1.3,8,8,777.7,77777,9,999999999,0,0.0000,0,0,999.000,0.0,99.0
2025,1,5,23,0,?9?9?9?9E0?9?9?9?9*9?9?9?9?9*9?9*9*9?9*_?9?9*9?9*9,24.9,20.0,76,98090,0,1414,413,0,0,0,0,0,0,0,180,1.3,8,8,777.7,77777,9,999999999,0,0.0000,0,0,999.000,0.9,99.0
2025,1,5,24,0,?9?9?9?9E0?9?9?9?9*9?9?9?9?9*9?9*9*9?9*_?9?9*9?9*9,24.3,21.0,81,98090,0,1414,411,0,0,0,0,0,0,0,180,1.5,8,8,777.7,77777,9,999999999,0,0.0000,0,0,999.000,0.0,99.0
2025,1,6,1,0,?9?9?9?9E0?9?9?9?9*9?9?9?9?9*9?9*9*9?9*_?9?9*9?9*9,24.0,20.9,82,98090,0,1414,410,0,0,0,0,0,0,0,180,1.5,8,8,777.7,77777,9,999999999,0,0.0000,0,0,999.000,0.0,99.0
2025,1,6,2,0,?9?9?9?9E0?9?9?9?9*9?9?9?9?9*9?9*9*9?9*_?9?9*9?9*9,23.7,20.9,84,98090,0,1414,408,0,0,0,0,0,0,0,180,1.5,8,8,777.7,77777,9,999999999,0,0.0000,0,0,999.000,0.0,99.0
2025,1,6,3,0,?9?9?9?9E0?9?9?9?9*9?9?9?9?9*9?9*9*9?9*_?9?9*9?9*9,23.4,20.8,85,98090,0,1414,406,0,0,0,0,0,0,0,180,1.5,8,8,777.7,77777,9,999999999,0,0.0000,0,0,999.000,0.0,99.0
2025,1,6,4,0,?9?9?9?9E0?9?9?9?9*9?9?9?9?9*9?9*9*9?9*_?9?9*9?9*9,23.1,20.7,86,98090,0,1414,404,0,0,0,0,0,0,0,180,1.5,8,8,777.7,77777,9,999999999,0,0.0000,0,0,999.000,0.0,99.0
2025,1,6,5,0,?9?9?9?9E0?9?9?9?9*9?9?9?9?9*9?9*9*9?9*_?9?9*9?9*9,22.8,20.6,87,98090,0,1414,403,0,0,0,0,0,0,0,180,1.5,8,8,777.7,77777,9,999999999,0,0.0000,0,0,999.000,0.0,99.0
2025,1,6,6,0,?9?9?9?9E0?9?9?9?9*9?9?9?9?9*9?9*9*9?9*_?9?9*9?9*9,22.6,20.5,87,98090,82,1414,402,0,0,0,0,0,0,0,180,1.5,8,8,777.7,77777,9,999999999,0,0.0000,0,0,999.000,0.0,99.0
2025,1,6,7,0,?9?9?9?9E0?9?9?9?9*9?9?9?9?9*9?9*9*9?9*_?9?9*9?9*9,22.4,20.5,88,98090,395,1414,400,63,0,63,7508,0,6883,72,180,1.5,8,8,777.7,77777,9,999999999,0,0.0000,0,0,999.000,0.0,99.0
2025,1,6,8,0,?9?9?9?9E0?9?9?9?9*9?9?9?9?9*9?9*9*9?9*_?9?9*9?9*9,24.1,21.0,82,98090,698,1414,399,281,126,219,33738,11960,24095,141,180,1.5,6,6,777.7,77777,9,999999999,0,0.0000,0,0,999.000,0.0,99.0
2025,1,6,9,0,?9?9?9?9E0?9?9?9?9*9?9?9?9?9*9?9*9*9?9*_?9?9*9?9*9,25.3,21.3,78,98090,968,1414,396,533,306,323,63931,29061,35581,150,180,1.5,3,3,777.7,77777,9,999999999,0,0.0000,0,0,999.000,0.0,99.0
2025,1,6,10,0,?9?9?9?9E0?9?9?9?9*9?9?9?9?9*9?9*9*9?9*_?9?9*9?9*9,26.3,21.6,75,98090,1185,1414,398,704,389,378,84455,36961,41554,143,180,1.5,2,2,777.7,77777,9,999999999,0,0.0000,0,0,999.000,0.0,99.0
2025,1,6,11,0,?9?9?9?9E0?9?9?9?9*9?9?9?9?9*9?9*9*9?9*_?9?9*9?9*9,27.2,21.9,72,98090,1335,1414,403,852,508,372,102251,48283,40945,125,180,2.0,2,2,777.7,77777,9,999999999,0,0.0000,0,0,999.000,0.0,99.0
2025,1,6,12,0,?9?9?9?9E0?9?9?9?9*9?9?9?9?9*9?9*9*9?9*_?9?9*9?9*9,27.6,22.0,71,98090,1408,1414,416,791,311,481,94958,29566,52964,154,180,3.4,5,5,777.7,77777,9,999999999,0,0.0000,0,0,999.000,0.0,99.0
2025,1,6,13,0,?9?9?9?9E0?9?9?9?9*9?9?9?9?9*9?9*9*9?9*_?9?9*9?9*9,28.1,22.1,70,98090,1398,1414,419,838,372,470,100522,35379,51649,151,180,4.3,5,5,777.7,77777,9,999999999,0,0.0000,0,0,999.000,0.0,99.0
2025,1,6,14,0,?9?9?9?9E0?9?9?9?9*9?9?9?9?9*9?9*9*9?9*_?9?9*9?9*9,28.4,22.2,69,98090,1306,1414,414,889,579,354,106705,55041,38943,122,180,4.8,3,3,777.7,77777,9,999999999,0,0.0000,0,0,999.000,0.0,99.0
2025,1,6,15,0,?9?9?9?9E0?9?9?9?9*9?9?9?9?9*9?9*9*9?9*_?9?9*9?9*9,28.4,22.2,69,98090,1139,1414,425,615,291,381,73855,27684,41883,150,180,4.9,6,6,777.7,77777,9,999999999,0,0.0000,0,0,999.000,0.0,99.0
2025,1,6,16,0,?9?9?9?9E0?9?9?9?9*9?9?9?9?9*9?9*9*9?9*_?9?9*9?9*9,28.1,22.1,70,98090,908,1414,434,394,134,308,47286,12756,33867,153,180,5.3,8,8,777.7,77777,9,999999999,0,0.0000,0,0,999.000,0.0,99.0
2025,1,6,17,0,?9?9?9?9E0?9?9?9?9*9?9?9?9?9*9?9*9*9?9*_?9?9*9?9*9,27.3,21.9,72,98090,628,1414,430,115,0,115,13805,0,12654,83,180,3.7,8,8,777.7,77777,9,999999999,0,0.0000,0,0,999.000,0.0,99.0
2025,1,6,18,0,?9?9?9?9E0?9?9?9?9*9?9?9?9?9*9?9*9*9?9*_?9?9*9?9*9,26.9,21.8,73,98090,320,1414,420,210,372,126,25210,35299,13912,179,180,2.9,7,7,777.7,77777,9,999999999,0,0.0000,0,0,999.000,0.0,99.0
2025,1,6,19,0,?9?9?9?9E0?9?9?9?9*9?9?9?9?9*9?9*9*9?9*_?9?9*9?9*9,26.2,21.6,75,98090,12,1414,423,31,0,31,3708,0,3399,25913,180,1.8,8,8,777.7,77777,9,999999999,0,0.0000,0,0,999.000,0.0,99.0
2025,1,6,20,0,?9?9?9?9E0?9?9?9?9*9?9?9?9?9*9?9*9*9?9*_?9?9*9?9*9,25.7,21.4,77,98090,0,1414,420,0,0,0,0,0,0,0,180,1.5,8,8,777.7,77777,9,999999999,0,0.0000,0,0,999.000,0.0,99.0
2025,1,6,21,0,?9?9?9?9E0?9?9?9?9*9?9?9?9?9*9?9*9*9?9*_?9?9*9?9*9,25.2,21.3,79,98090,0,1414,417,0,0,0,0,0,0,0,180,1.5,8,8,777.7,77777,9,999999999,0,0.0000,0,0,999.000,0.0,99.0
2025,1,6,22,0,?9?9?9?9E0?9?9?9?9*9?9?9?9?9*9?9*9*9?9*_?9?9*9?9*9,24.6,21.1,80,98090,0,1414,413,0,0,0,0,0,0,0,180,1.5,8,8,777.7,77777,9,999999999,0,0.0000,0,0,999.000,0.0,99.0
2025,1,6,23,0,?9?9?9?9E0?9?9?9?9*9?9?9?9?9*9?9*9*9?9*_?9?9*9?9*9,24.1,21.0,82,98090,0,1414,410,0,0,0,0,0,0,0,180,1.5,8,8,777.7,77777,9,999999999,0,0.0000,0,0,999.000,0.0,99.0
2025,1,6,24,0,?9?9?9?9E0?9?9?9?9*9?9?9?9?9*9?9*9*9?9*_?9?9*9?9*9,23.5,18.9,75,98090,0,1414,405,0,0,0,0,0,0,0,180,1.3,8,8,777.7,77777,9,999999999,0,0.0000,0,0,999.000,0.0,99.0
2025,1,7,1,0,?9?9?9?9E0?9?9?9?9*9?9?9?9?9*9?9*9*9?9*_?9?9*9?9*9,23.3,19.0,76,98090,0,1414,403,0,0,0,0,0,0,0,180,1.3,8,8,777.7,77777,9,999999999,0,0.0000,0,0,999.000,0.0,99.0
2025,1,7,2,0,?9?9?9?9E0?9?9?9?9*9?9?9?9?9*9?9*9*9?9*_?9?9*9?9*9,23.0,19.1,78,98090,0,1414,402,0,0,0,0,0,0,0,180,1.3,8,8,777.7,77777,9,999999999,0,0.0000,0,0,999.000,0.0,99.0
2025,1,7,3,0,?9?9?9?9E0?9?9?9?9*9?9?9?9?9*9?9*9*9?9*_?9?9*9?9*9,22.7,19.1,80,98090,0,1414,400,0,0,0,0,0,0,0,180,1.3,8,8,777.7,77777,9,999999999,0,0.0000,0,0,999.000,0.0,99.0
2025,1,7,4,0,?9?9?9?9E0?9?9?9?9*9?9?9?9?9*9?9*9*9?9*_?9?9*9?9*9,22.5,19.2,81,98090,0,1414,399,0,0,0,0,0,0,0,180,1.3,8,8,777.7,77777,9,999999999,0,0.0000,0,0,999.000,0.0,99.0
2025,1,7,5,0,?9?9?9?9E0?9?9?9?9*9?9?9?9?9*9?9*9*9?9*_?9?9*9?9*9,22.2,19.3,83,98090,0,1414,398,0,0,0,0,0,0,0,180,1.3,8,8,777.7,77777,9,999999999,0,0.0000,0,0,999.000,0.0,99.0
2025,1,7,6,0,?9?9?9?9E0?9?9?9?9*9?9?9?9?9*9?9*9*9?9*_?9?9*9?9*9,22.0,19.3,84,98090,78,1414,397,0,0,0,0,0,0,0,180,1.3,8,8,777.7,77777,9,999999999,0,0.0000,0,0,999.000,0.0,99.0
2025,1,7,7,0,?9?9?9?9E0?9?9?9?9*9?9?9?9?9*9?9*9*9?9*_?9?9*9?9*9,21.9,19.4,85,98090,392,1414,396,84,0,84,10099,0,9258,97,180,1.3,8,8,777.7,77777,9,999999999,0,0.0000,0,0,999.000,0.0,99.0
2025,1,7,8,0,?9?9?9?9E0?9?9?9?9*9?9?9?9?9*9?9*9*9?9*_?9?9*9?9*9,24.2,18.7,71,98090,695,1414,383,335,255,209,40146,24257,22999,135,180,1.3,2,2,777.7,77777,9,999999999,0,0.0000,0,0,999.000,0.0,99.0
2025,1,7,9,0,?9?9?9?9E0?9?9?9?9*9?9?9?9?9*9?9*9*9?9*_?9?9*9?9*9,25.6,18.3,64,98090,966,1414,378,592,461,277,71026,43772,30507,129,180,1.4,0,0,777.7,77777,9,999999999,0,0.0000,0,0,999.000,0.0,99.0
2025,1,7,10,0,?9?9?9?9E0?9?9?9?9*9?9?9?9?9*9?9*9*9?9*_?9?9*9?9*9,26.9,17.9,57,98090,1183,1414,384,817,613,303,98005,58271,33370,115,180,2.0,0,0,777.7,77777,9,999999999,0,0.0000,0,0,999.000,0.0,99.0
2025,1,7,11,0,?9?9?9?9E0?9?9?9?9*9?9?9?9?9*9?9*9*9?9*_?9?9*9?9*9,28.1,17.6,52,98090,1334,1414,390,987,746,283,118446,70880,31135,95,180,2.4,0,0,777.7,77777,9,999999999,0,0.0000,0,0,999.000,0.0,99.0
2025,1,7,12,0,?9?9?9?9E0?9?9?9?9*9?9?9?9?9*9?9*9*9?9*_?9?9*9?9*9,29.1,17.3,48,98090,1407,1414,394,1094,901,197,131258,85592,21669,63,180,3.1,0,0,777.7,77777,9,999999999,0,0.0000,0,0,999.000,0.0,99.0
2025,1,7,13,0,?9?9?9?9E0?9?9?9?9*9?9?9?9?9*9?9*9*9?9*_?9?9*9?9*9,29.8,17.0,46,98090,1398,1414,398,1122,1002,131,134624,95199,14404,42,180,3.5,0,0,777.7,77777,9,999999999,0,0.0000,0,0,999.000,0.0,99.0
2025,1,7,14,0,?9?9?9?9E0?9?9?9?9*9?9?9?9?9*9?9*9*9?9*_?9?9*9?9*9,30.3,16.9,44,98090,1307,1414,400,1074,941,204,128879,89379,22476,70,180,3.7,0,0,777.7,77777,9,999999999,0,0.0000,0,0,999.000,0.0,99.0
2025,1,7,15,0,?9?9?9?9E0?9?9?9?9*9?9?9?9?9*9?9*9*9?9*_?9?9*9?9*9,30.5,16.8,43,98090,1140,1414,402,957,819,297,114887,77759,32716,117,180,4.6,0,0,777.7,77777,9,999999999,0,0.0000,0,0,999.000,0.0,99.0
2025,1,7,16,0,?9?9?9?9E0?9?9?9?9*9?9?9?9?9*9?9*9*9?9*_?9?9*9?9*9,30.5,16.8,43,98090,909,1414,402,779,851,231,93421,80885,25439,115,180,4.5,0,0,777.7,77777,9,999999999,0,0.0000,0,0,999.000,0.0,99.0
2025,1,7,17,0,?9?9?9?9E0?9?9?9?9*9?9?9?9?9*9?9*9*9?9*_?9?9*9?9*9,30.1,17.0,45,98090,630,1414,400,543,832,173,65167,78995,19052,124,180,4.6,0,0,777.7,77777,9,999999999,0,0.0000,0,0,999.000,0.0,99.0
2025,1,7,18,0,?9?9?9?9E0?9?9?9?9*9?9?9?9?9*9?9*9*9?9*_?9?9*9?9*9,29.4,17.2,47,98090,321,1414,413,285,586,152,34151,55651,16746,214,180,3.7,3,3,777.7,77777,9,999999999,0,0.0000,0,0,999.000,0.0,99.0
2025,1,7,19,0,?9?9?9?9E0?9?9?9?9*9?9?9?9?9*9?9*9*9?9*_?9?9*9?9*9,28.4,17.5,51,98090,13,1414,430,45,0,45,5437,0,4984,13208,180,2.8,8,8,777.7,77777,9,999999999,0,0.0000,0,0,999.000,0.0,99.0
2025,1,7,20,0,?9?9?9?9E0?9?9?9?9*9?9?9?9?9*9?9*9*9?9*_?9?9*9?9*9,27.6,17.7,54,98090,0,1414,425,0,0,0,0,0,0,0,180,2.9,8,8,777.7,77777,9,999999999,0,0.0000,0,0,999.000,0.0,99.0
2025,1,7,21,0,?9?9?9?9E0?9?9?9?9*9?9?9?9?9*9?9*9*9?9*_?9?9*9?9*9,26.8,18.0,58,98090,0,1414,421,0,0,0,0,0,0,0,180,1.6,8,8,777.7,77777,9,999999999,0,0.0000,0,0,999.000,0.0,99.0
2025,1,7,22,0,?9?9?9?9E0?9?9?9?9*9?9?9?9?9*9?9*9*9?9*_?9?9*9?9*9,26.0,18.2,62,98090,0,1414,417,0,0,0,0,0,0,0,180,1.3,8,8,777.7,77777,9,999999999,0,0.0000,0,0,999.000,0.0,99.0
2025,1,7,23,0,?9?9?9?9E0?9?9?9?9*9?9?9?9?9*9?9*9*9?9*_?9?9*9?9*9,25.2,18.4,66,98090,0,1414,413,0,0,0,0,0,0,0,180,1.3,8,8,777.7,77777,9,999999999,0,0.0000,0,0,999.000,0.0,99.0
2025,1,7,24,0,?9?9?9?9E0?9?9?9?9*9?9?9?9?9*9?9*9*9?9*_?9?9*9?9*9,24.4,20.2,77,98090,0,1414,411,0,0,0,0,0,0,0,180,1.4,8,8,777.7,77777,9,999999999,0,0.0000,0,0,999.000,0.0,99.0
2025,1,8,1,0,?9?9?9?9E0?9?9?9?9*9?9?9?9?9*9?9*9*9?9*_?9?9*9?9*9,24.0,20.1,79,98090,0,1414,408,0,0,0,0,0,0,0,180,1.4,8,8,777.7,77777,9,999999999,0,0.0000,0,0,999.000,0.0,99.0
2025,1,8,2,0,?9?9?9?9E0?9?9?9?9*9?9?9?9?9*9?9*9*9?9*_?9?9*9?9*9,23.6,20.1,80,98090,0,1414,406,0,0,0,0,0,0,0,180,1.4,8,8,777.7,77777,9,999999999,0,0.0000,0,0,999.000,0.0,99.0
2025,1,8,3,0,?9?9?9?9E0?9?9?9?9*9?9?9?9?9*9?9*9*9?9*_?9?9*9?9*9,23.2,20.0,82,98090,0,1414,404,0,0,0,0,0,0,0,180,1.4,8,8,777.7,77777,9,999999999,0,0.0000,0,0,999.000,0.0,99.0
2025,1,8,4,0,?9?9?9?9E0?9?9?9?9*9?9?9?9?9*9?9*9*9?9*_?9?9*9?9*9,22.8,19.9,83,98090,0,1414,401,0,0,0,0,0,0,0,180,1.4,8,8,777.7,77777,9,999999999,0,0.0000,0,0,999.000,0.0,99.0
2025,1,8,5,0,?9?9?9?9E0?9?9?9?9*9?9?9?9?9*9?9*9*9?9*_?9?9*9?9*9,22.4,19.8,85,98090,0,1414,400,0,0,0,0,0,0,0,180,1.4,8,8,777.7,77777,9,999999999,0,0.0000,0,0,999.000,0.0,99.0
2025,1,8,6,0,?9?9?9?9E0?9?9?9?9*9?9?9?9?9*9?9*9*9?9*_?9?9*9?9*9,22.1,19.8,86,98090,75,1414,398,0,0,0,0,0,0,0,180,1.4,8,8,777.7,77777,9,999999999,0,0.0000,0,0,999.000,0.0,99.0
2025,1,8,7,0,?9?9?9?9E0?9?9?9?9*9?9?9?9?9*9?9*9*9?9*_?9?9*9?9*9,21.9,19.7,87,98090,389,1414,396,83,0,83,9940,0,9111,96,180,1.4,8,8,777.7,77777,9,999999999,0,0.0000,0,0,999.000,0.0,99.0
2025,1,8,8,0,?9?9?9?9E0?9?9?9?9*9?9?9?9?9*9?9*9*9?9*_?9?9*9?9*9,24.1,20.2,78,98090,693,1414,385,334,259,207,40122,24624,22823,135,180,1.4,2,2,777.7,77777,9,999999999,0,0.0000,0,0,999.000,0.0,99.0
2025,1,8,9,0,?9?9?9?9E0?9?9?9?9*9?9?9?9?9*9?9*9*9?9*_?9?9*9?9*9,25.5,20.4,73,98090,963,1414,380,591,464,275,70933,44037,30290,129,180,1.4,0,0,777.7,77777,9,999999999,0,0.0000,0,0,999.000,0.0,99.0
2025,1,8,10,0,?9?9?9?9E0?9?9?9?9*9?9?9?9?9*9?9*9*9?9*_?9?9*9?9*9,26.9,20.7,68,98090,1182,1414,387,819,623,298,98286,59181,32818,114,180,2.1,0,0,777.7,77777,9,999999999,0,0.0000,0,0,999.000,0.0,99.0
2025,1,8,11,0,?9?9?9?9E0?9?9?9?9*9?9?9?9?9*9?9*9*9?9*_?9?9*9?9*9,28.0,20.9,65,98090,1333,1414,393,990,781,253,118750,74206,27830,85,180,2.6,0,0,777.7,77777,9,999999999,0,0.0000,0,0,999.000,0.0,99.0
2025,1,8,12,0,?9?9?9?9E0?9?9?9?9*9?9?9?9?9*9?9*9*9?9*_?9?9*9?9*9,29.0,21.0,62,98090,1407,1414,399,1094,902,196,131268,85677,21593,63,180,3.9,0,0,777.7,77777,9,999999999,0,0.0000,0,0,999.000,0.0,99.0
2025,1,8,13,0,?9?9?9?9E0?9?9?9?9*9?9?9?9?9*9?9*9*9?9*_?9?9*9?9*9,29.7,21.2,60,98090,1398,1414,403,1127,885,252,135263,84064,27712,81,180,4.6,0,0,777.7,77777,9,999999999,0,0.0000,0,0,999.000,0.0,99.0
2025,1,8,14,0,?9?9?9?9E0?9?9?9?9*9?9?9?9?9*9?9*9*9?9*_?9?9*9?9*9,30.2,21.3,58,98090,1308,1414,405,1082,950,203,129887,90277,22375,70,180,4.4,0,0,777.7,77777,9,999999999,0,0.0000,0,0,999.000,0.0,99.0
2025,1,8,15,0,?9?9?9?9E0?9?9?9?9*9?9?9?9?9*9?9*9*9?9*_?9?9*9?9*9,30.4,21.3,58,98090,1141,1414,407,964,821,301,115638,77960,33140,119,180,5.4,0,0,777.7,77777,9,999999999,0,0.0000,0,0,999.000,0.0,99.0
2025,1,8,16,0,?9?9?9?9E0?9?9?9?9*9?9?9?9?9*9?9*9*9?9*_?9?9*9?9*9,30.4,21.3,58,98090,910,1414,407,779,852,231,93522,80904,25426,114,180,4.9,0,0,777.7,77777,9,999999999,0,0.0000,0,0,999.000,0.0,99.0
2025,1,8,17,0,?9?9?9?9E0?9?9?9?9*9?9?9?9?9*9?9*9*9?9*_?9?9*9?9*9,30.0,21.2,59,98090,631,1414,404,550,830,180,66044,78843,19845,129,180,3.6,0,0,777.7,77777,9,999999999,0,0.0000,0,0,999.000,0.0,99.0
2025,1,8,18,0,?9?9?9?9E0?9?9?9?9*9?9?9?9?9*9?9*9*9?9*_?9?9*9?9*9,29.3,21.1,61,98090,322,1414,418,287,586,154,34393,55636,16916,216,180,2.7,3,3,777.7,77777,9,999999999,0,0.0000,0,0,999.000,0.0,99.0
2025,1,8,19,0,?9?9?9?9E0?9?9?9?9*9?9?9?9?9*9?9*9*9?9*_?9?9*9?9*9,28.3,20.9,64,98090,14,1414,434,45,0,45,5430,0,4978,8350,180,1.8,8,8,777.7,77777,9,999999999,0,0.0000,0,0,999.000,0.0,99.0
2025,1,8,20,0,?9?9?9?9E0?9?9?9?9*9?9?9?9?9*9?9*9*9?9*_?9?9*9?9*9,27.5,20.8,66,98090,0,1414,429,0,0,0,0,0,0,0,180,1.4,8,8,777.7,77777,9,999999999,0,0.0000,0,0,999.000,0.0,99.0
2025,1,8,21,0,?9?9?9?9E0?9?9?9?9*9?9?9?9?9*9?9*9*9?9*_?9?9*9?9*9,26.8,20.6,69,98090,0,1414,425,0,0,0,0,0,0,0,180,1.4,8,8,777.7,77777,9,999999999,0,0.0000,0,0,999.000,0.0,99.0
2025,1,8,22,0,?9?9?9?9E0?9?9?9?9*9?9?9?9?9*9?9*9*9?9*_?9?9*9?9*9,26.0,20.5,71,98090,0,1414,420,0,0,0,0,0,0,0,180,1.4,8,8,777.7,77777,9,999999999,0,0.0000,0,0,999.000,0.0,99.0
2025,1,8,23,0,?9?9?9?9E0?9?9?9?9*9?9?9?9?9*9?9*9*9?9*_?9?9*9?9*9,25.2,20.4,74,98090,0,1414,416,0,0,0,0,0,0,0,180,1.4,8,8,777.7,77777,9,999999999,0,0.0000,0,0,999.000,0.0,99.0
2025,1,8,24,0,?9?9?9?9E0?9?9?9?9*9?9?9?9?9*9?9*9*9?9*_?9?9*9?9*9,24.5,20.3,77,98090,0,1414,411,0,0,0,0,0,0,0,180,1.8,8,8,777.7,77777,9,999999999,0,0.0000,0,0,999.000,0.0,99.0
2025,1,9,1,0,?9?9?9?9E0?9?9?9?9*9?9?9?9?9*9?9*9*9?9*_?9?9*9?9*9,24.1,20.3,79,98090,0,1414,409,0,0,0,0,0,0,0,180,1.8,8,8,777.7,77777,9,999999999,0,0.0000,0,0,999.000,0.0,99.0
2025,1,9,2,0,?9?9?9?9E0?9?9?9?9*9?9?9?9?9*9?9*9*9?9*_?9?9*9?9*9,23.7,20.2,81,98090,0,1414,407,0,0,0,0,0,0,0,180,1.8,8,8,777.7,77777,9,999999999,0,0.0000,0,0,999.000,0.0,99.0
2025,1,9,3,0,?9?9?9?9E0?9?9?9?9*9?9?9?9?9*9?9*9*9?9*_?9?9*9?9*9,23.3,20.2,82,98090,0,1414,405,0,0,0,0,0,0,0,180,1.8,8,8,777.7,77777,9,999999999,0,0.0000,0,0,999.000,0.0,99.0
2025,1,9,4,0,?9?9?9?9E0?9?9?9?9*9?9?9?9?9*9?9*9*9?9*_?9?9*9?9*9,22.9,20.2,84,98090,0,1414,403,0,0,0,0,0,0,0,180,1.8,8,8,777.7,77777,9,999999999,0,0.0000,0,0,999.000,0.0,99.0
2025,1,9,5,0,?9?9?9?9E0?9?9?9?9*9?9?9?9?9*9?9*9*9?9*_?9?9*9?9*9,22.6,20.1,86,98090,0,1414,401,0,0,0,0,0,0,0,180,1.8,8,8,777.7,77777,9,999999999,0,0.0000,0,0,999.000,0.0,99.0
2025,1,9,6,0,?9?9?9?9E0?9?9?9?9*9?9?9?9?9*9?9*9*9?9*_?9?9*9?9*9,22.3,20.1,87,98090,72,1414,399,0,0,0,0,0,0,0,180,1.8,8,8,777.7,77777,9,999999999,0,0.0000,0,0,999.000,0.0,99.0
2025,1,9,7,0,?9?9?9?9E0?9?9?9?9*9?9?9?9?9*9?9*9*9?9*_?9?9*9?9*9,22.1,20.1,88,98090,385,1414,398,78,0,78,9418,0,8633,92,180,1.8,8,8,777.7,77777,9,999999999,0,0.0000,0,0,999.000,0.0,99.0
2025,1,9,8,0,?9?9?9?9E0?9?9?9?9*9?9?9?9?9*9?9*9*9?9*_?9?9*9?9*9,24.3,20.3,78,98090,690,1414,393,317,216,212,38058,20514,23305,138,180,1.8,4,4,777.7,77777,9,999999999,0,0.0000,0,0,999.000,0.0,99.0
2025,1,9,9,0,?9?9?9?9E0?9?9?9?9*9?9?9?9?9*9?9*9*9?9*_?9?9*9?9*9,25.6,20.4,73,98090,961,1414,380,559,376,304,67136,35764,33396,142,180,1.8,0,0,777.7,77777,9,999999999,0,0.0000,0,0,999.000,0.0,99.0
2025,1,9,10,0,?9?9?9?9E0?9?9?9?9*9?9?9?9?9*9?9*9*9?9*_?9?9*9?9*9,26.9,20.5,68,98090,1180,1414,387,770,544,316,92401,51667,34758,120,180,2.2,0,0,777.7,77777,9,999999999,0,0.0000,0,0,999.000,0.0,99.0
2025,1,9,11,0,?9?9?9?9E0?9?9?9?9*9?9?9?9?9*9?9*9*9?9*_?9?9*9?9*9,28.0,20.6,64,98090,1332,1414,393,928,646,319,111356,61386,35092,108,180,2.4,0,0,777.7,77777,9,999999999,0,0.0000,0,0,999.000,0.0,99.0
2025,1,9,12,0,?9?9?9?9E0?9?9?9?9*9?9?9?9?9*9?9*9*9?9*_?9?9*9?9*9,28.9,20.7,61,98090,1407,1414,398,1018,652,369,122134,61959,40562,118,180,3.6,0,0,777.7,77777,9,999999999,0,0.0000,0,0,999.000,0.0,99.0
2025,1,9,13,0,?9?9?9?9E0?9?9?9?9*9?9?9?9?9*9?9*9*9?9*_?9?9*9?9*9,29.6,20.8,59,98090,1399,1414,401,1050,781,276,125962,74242,30413,89,180,4.1,0,0,777.7,77777,9,999999999,0,0.0000,0,0,999.000,0.0,99.0
2025,1,9,14,0,?9?9?9?9E0?9?9?9?9*9?9?9?9?9*9?9*9*9?9*_?9?9*9?9*9,30.0,20.8,57,98090,1309,1414,404,997,885,178,119668,84056,19613,61,180,4.3,0,0,777.7,77777,9,999999999,0,0.0000,0,0,999.000,0.0,99.0
2025,1,9,15,0,?9?9?9?9E0?9?9?9?9*9?9?9?9?9*9?9*9*9?9*_?9?9*9?9*9,30.2,20.8,57,98090,1142,1414,405,878,982,85,105367,93259,9337,33,180,3.8,0,0,777.7,77777,9,999999999,0,0.0000,0,0,999.000,0.0,99.0
2025,1,9,16,0,?9?9?9?9E0?9?9?9?9*9?9?9?9?9*9?9*9*9?9*_?9?9*9?9*9,30.2,20.8,57,98090,912,1414,405,708,817,182,85010,77597,20005,90,180,3.0,0,0,777.7,77777,9,999999999,0,0.0000,0,0,999.000,0.0,99.0
2025,1,9,17,0,?9?9?9?9E0?9?9?9?9*9?9?9?9?9*9?9*9*9?9*_?9?9*9?9*9,29.8,20.8,58,98090,632,1414,416,496,786,145,59489,74626,15933,103,180,3.0,2,2,777.7,77777,9,999999999,0,0.0000,0,0,999.000,0.0,99.0
2025,1,9,18,0,?9?9?9?9E0?9?9?9?9*9?9?9?9?9*9?9*9*9?9*_?9?9*9?9*9,29.1,20.7,60,98090,323,1414,422,257,410,163,30797,38974,17959,228,180,1.8,5,5,777.7,77777,9,999999999,0,0.0000,0,0,999.000,0.0,99.0
2025,1,9,19,0,?9?9?9?9E0?9?9?9?9*9?9?9?9?9*9?9*9*9?9*_?9?9*9?9*9,28.1,20.6,63,98090,15,1414,432,40,0,40,4762,0,4365,5545,180,1.8,8,8,777.7,77777,9,999999999,0,0.0000,0,0,999.000,0.0,99.0
2025,1,9,20,0,?9?9?9?9E0?9?9?9?9*9?9?9?9?9*9?9*9*9?9*_?9?9*9?9*9,27.5,20.6,66,98090,0,1414,429,0,0,0,0,0,0,0,180,1.8,8,8,777.7,77777,9,999999999,0,0.0000,0,0,999.000,0.0,99.0
2025,1,9,21,0,?9?9?9?9E0?9?9?9?9*9?9?9?9?9*9?9*9*9?9*_?9?9*9?9*9,26.8,20.5,68,98090,0,1414,425,0,0,0,0,0,0,0,180,1.8,8,8,777.7,77777,9,999999999,0,0.0000,0,0,999.000,0.0,99.0
2025,1,9,22,0,?9?9?9?9E0?9?9?9?9*9?9?9?9?9*9?9*9*9?9*_?9?9*9?9*9,26.2,20.5,70,98090,0,1414,421,0,0,0,0,0,0,0,180,1.8,8,8,777.7,77777,9,999999999,0,0.0000,0,0,999.000,0.0,99.0
2025,1,9,23,0,?9?9?9?9E0?9?9?9?9*9?9?9?9?9*9?9*9*9?9*_?9?9*9?9*9,25.5,20.4,73,98090,0,1414,417,0,0,0,0,0,0,0,180,1.8,8,8,777.7,77777,9,999999999,0,0.0000,0,0,999.000,0.0,99.0
2025,1,9,24,0,?9?9?9?9E0?9?9?9?9*9?9?9?9?9*9?9*9*9?9*_?9?9*9?9*9,24.9,20.5,77,98090,0,1414,414,0,0,0,0,0,0,0,180,1.4,8,8,777.7,77777,9,999999999,0,0.0000,0,0,999.000,0.2,99.0
2025,1,10,1,0,?9?9?9?9E0?9?9?9?9*9?9?9?9?9*9?9*9*9?9*_?9?9*9?9*9,24.5,20.5,79,98090,0,1414,412,0,0,0,0,0,0,0,180,1.4,8,8,777.7,77777,9,999999999,0,0.0000,0,0,999.000,0.0,99.0
2025,1,10,2,0,?9?9?9?9E0?9?9?9?9*9?9?9?9?9*9?9*9*9?9*_?9?9*9?9*9,24.2,20.5,80,98090,0,1414,410,0,0,0,0,0,0,0,180,1.4,8,8,777.7,77777,9,999999999,0,0.0000,0,0,999.000,0.0,99.0
2025,1,10,3,0,?9?9?9?9E0?9?9?9?9*9?9?9?9?9*9?9*9*9?9*_?9?9*9?9*9,23.9,20.5,77,98090,0,1414,408,0,0,0,0,0,0,0,180,1.4,8,8,777.7,77777,9,999999999,0,0.0000,0,0,999.000,0.0,99.0
2025,1,10,4,0,?9?9?9?9E0?9?9?9?9*9?9?9?9?9*9?9*9*9?9*_?9?9*9?9*9,23.5,20.5,79,98090,0,1414,406,0,0,0,0,0,0,0,180,1.4,8,8,777.7,77777,9,999999999,0,0.0000,0,0,999.000,0.0,99.0
2025,1,10,5,0,?9?9?9?9E0?9?9?9?9*9?9?9?9?9*9?9*9*9?9*_?9?9*9?9*9,23.2,20.5,80,98090,0,1414,405,0,0,0,0,0,0,0,180,1.4,8,8,777.7,77777,9,999999999,0,0.0000,0,0,999.000,0.0,99.0
2025,1,10,6,0,?9?9?9?9E0?9?9?9?9*9?9?9?9?9*9?9*9*9?9*_?9?9*9?9*9,23.0,20.5,81,98090,68,1414,404,0,0,0,0,0,0,0,180,1.4,8,8,777.7,77777,9,999999999,0,0.0000,0,0,999.000,0.0,99.0
2025,1,10,7,0,?9?9?9?9E0?9?9?9?9*9?9?9?9?9*9?9*9*9?9*_?9?9*9?9*9,22.8,20.5,86,98090,382,1414,402,56,0,56,6731,0,6170,66,180,1.4,8,8,777.7,77777,9,999999999,0,0.0000,0,0,999.000,0.0,99.0
2025,1,10,8,0,?9?9?9?9E0?9?9?9?9*9?9?9?9?9*9?9*9*9?9*_?9?9*9?9*9,24.7,20.5,74,98090,687,1414,402,260,98,213,31226,9284,23403,139,180,1.4,6,6,777.7,77777,9,999999999,0,0.0000,0,0,999.000,0.0,99.0
2025,1,10,9,0,?9?9?9?9E0?9?9?9?9*9?9?9?9?9*9?9*9*9?9*_?9?9*9?9*9,25.9,20.5,69,98090,959,1414,405,467,193,336,56086,18338,37012,158,180,1.4,5,5,777.7,77777,9,999999999,0,0.0000,0,0,999.000,0.0,99.0
2025,1,10,10,0,?9?9?9?9E0?9?9?9?9*9?9?9?9?9*9?9*9*9?9*_?9?9*9?9*9,27.1,20.4,65,98090,1179,1414,408,658,299,409,78998,28360,45036,156,180,1.4,4,4,777.7,77777,9,999999999,0,0.0000,0,0,999.000,0.0,99.0
2025,1,10,11,0,?9?9?9?9E0?9?9?9?9*9?9?9?9?9*9?9*9*9?9*_?9?9*9?9*9,28.2,20.4,61,98090,1331,1414,411,825,472,380,98974,44820,41848,129,180,1.9,3,3,777.7,77777,9,999999999,0,0.0000,0,0,999.000,0.0,99.0
2025,1,10,12,0,?9?9?9?9E0?9?9?9?9*9?9?9?9?9*9?9*9*9?9*_?9?9*9?9*9,29.1,20.4,59,98090,1407,1414,416,873,454,421,104704,43131,46287,135,180,2.9,3,3,777.7,77777,9,999999999,0,0.0000,0,0,999.000,0.0,99.0
2025,1,10,13,0,?9?9?9?9E0?9?9?9?9*9?9?9?9?9*9?9*9*9?9*_?9?9*9?9*9,29.7,20.4,57,98090,1399,1414,422,872,453,423,104594,43075,46518,136,180,3.7,4,4,777.7,77777,9,999999999,0,0.0000,0,0,999.000,0.0,99.0
2025,1,10,14,0,?9?9?9?9E0?9?9?9?9*9?9?9?9?9*9?9*9*9?9*_?9?9*9?9*9,30.2,20.4,55,98090,1309,1414,418,913,641,319,109525,60852,35143,110,180,5.0,2,2,777.7,77777,9,999999999,0,0.0000,0,0,999.000,0.0,99.0
2025,1,10,15,0,?9?9?9?9E0?9?9?9?9*9?9?9?9?9*9?9*9*9?9*_?9?9*9?9*9,30.5,20.4,55,98090,1144,1414,419,826,800,179,99112,75983,19697,70,180,5.8,2,2,777.7,77777,9,999999999,0,0.0000,0,0,999.000,0.0,99.0
2025,1,10,16,0,?9?9?9?9E0?9?9?9?9*9?9?9?9?9*9?9*9*9?9*_?9?9*9?9*9,30.5,20.4,54,98090,913,1414,423,662,923,67,79488,87658,7343,33,180,5.3,3,3,777.7,77777,9,999999999,0,0.0000,0,0,999.000,0.0,99.0
2025,1,10,17,0,?9?9?9?9E0?9?9?9?9*9?9?9?9?9*9?9*9*9?9*_?9?9*9?9*9,30.1,20.4,55,98090,633,1414,428,438,748,103,52567,71014,11385,74,180,4.5,5,5,777.7,77777,9,999999999,0,0.0000,0,0,999.000,0.0,99.0
2025,1,10,18,0,?9?9?9?9E0?9?9?9?9*9?9?9?9?9*9?9*9*9?9*_?9?9*9?9*9,29.5,20.4,57,98090,324,1414,424,264,448,162,31676,42589,17777,225,180,3.3,5,5,777.7,77777,9,999999999,0,0.0000,0,0,999.000,0.0,99.0
2025,1,10,19,0,?9?9?9?9E0?9?9?9?9*9?9?9?9?9*9?9*9*9?9*_?9?9*9?9*9,28.6,20.4,64,98090,15,1414,435,50,0,50,5962,0,5465,5751,180,1.8,8,8,777.7,77777,9,999999999,0,0.0000,0,0,999.000,0.0,99.0
2025,1,10,20,0,?9?9?9?9E0?9?9?9?9*9?9?9?9?9*9?9*9*9?9*_?9?9*9?9*9,28.0,20.4,66,98090,0,1414,431,0,0,0,0,0,0,0,180,1.4,8,8,777.7,77777,9,999999999,0,0.0000,0,0,999.000,0.1,99.0
2025,1,10,21,0,?9?9?9?9E0?9?9?9?9*9?9?9?9?9*9?9*9*9?9*_?9?9*9?9*9,27.3,20.4,69,98090,0,1414,427,0,0,0,0,0,0,0,180,1.4,8,8,777.7,77777,9,999999999,0,0.0000,0,0,999.000,0.1,99.0
2025,1,10,22,0,?9?9?9?9E0?9?9?9?9*9?9?9?9?9*9?9*9*9?9*_?9?9*9?9*9,26.6,20.5,71,98090,0,1414,423,0,0,0,0,0,0,0,180,1.4,8,8,777.7,77777,9,999999999,0,0.0000,0,0,999.000,0.0,99.0
2025,1,10,23,0,?9?9?9?9E0?9?9?9?9*9?9?9?9?9*9?9*9*9?9*_?9?9*9?9*9,25.9,20.5,78,98090,0,1414,419,0,0,0,0,0,0,0,180,1.4,8,8,777.7,77777,9,999999999,2,0.0000,0,0,999.000,2.6,99.0
2025,1,10,24,0,?9?9?9?9E0?9?9?9?9*9?9?9?9?9*9?9*9*9?9*_?9?9*9?9*9,25.2,20.7,76,98090,0,1414,416,0,0,0,0,0,0,0,180,2.3,8,8,777.7,77777,9,999999999,0,0.0000,0,0,999.000,0.0,99.0
2025,1,11,1,0,?9?9?9?9E0?9?9?9?9*9?9?9?9?9*9?9*9*9?9*_?9?9*9?9*9,24.8,20.7,77,98090,0,1414,414,0,0,0,0,0,0,0,180,2.3,8,8,777.7,77777,9,999999999,0,0.0000,0,0,999.000,0.0,99.0
2025,1,11,2,0,?9?9?9?9E0?9?9?9?9*9?9?9?9?9*9?9*9*9?9*_?9?9*9?9*9,24.5,20.6,78,98090,0,1414,412,0,0,0,0,0,0,0,180,2.3,8,8,777.7,77777,9,999999999,0,0.0000,0,0,999.000,0.0,99.0
2025,1,11,3,0,?9?9?9?9E0?9?9?9?9*9?9?9?9?9*9?9*9*9?9*_?9?9*9?9*9,24.1,20.5,80,98090,0,1414,410,0,0,0,0,0,0,0,180,2.3,8,8,777.7,77777,9,999999999,0,0.0000,0,0,999.000,0.0,99.0
2025,1,11,4,0,?9?9?9?9E0?9?9?9?9*9?9?9?9?9*9?9*9*9?9*_?9?9*9?9*9,23.8,20.5,81,98090,0,1414,408,0,0,0,0,0,0,0,180,2.3,8,8,777.7,77777,9,999999999,0,0.0000,0,0,999.000,0.0,99.0
2025,1,11,5,0,?9?9?9?9E0?9?9?9?9*9?9?9?9?9*9?9*9*9?9*_?9?9*9?9*9,23.5,20.4,82,98090,0,1414,406,0,0,0,0,0,0,0,180,2.3,8,8,777.7,77777,9,999999999,0,0.0000,0,0,999.000,0.0,99.0
2025,1,11,6,0,?9?9?9?9E0?9?9?9?9*9?9?9?9?9*9?9*9*9?9*_?9?9*9?9*9,23.3,20.4,83,98090,65,1414,405,0,0,0,0,0,0,0,180,2.3,8,8,777.7,77777,9,999999999,0,0.0000,0,0,999.000,0.0,99.0
2025,1,11,7,0,?9?9?9?9E0?9?9?9?9*9?9?9?9?9*9?9*9*9?9*_?9?9*9?9*9,23.0,20.4,84,98090,379,1414,404,73,0,73,8717,0,7990,87,180,2.3,8,8,777.7,77777,9,999999999,0,0.0000,0,0,999.000,0.0,99.0
2025,1,11,8,0,?9?9?9?9E0?9?9?9?9*9?9?9?9?9*9?9*9*9?9*_?9?9*9?9*9,25.0,20.7,77,98090,684,1414,394,314,215,210,37664,20432,23081,138,180,2.3,3,3,777.7,77777,9,999999999,0,0.0000,0,0,999.000,0.0,99.0
2025,1,11,9,0,?9?9?9?9E0?9?9?9?9*9?9?9?9?9*9?9*9*9?9*_?9?9*9?9*9,26.2,20.9,72,98090,957,1414,384,556,376,302,66764,35733,33203,142,180,2.3,0,0,777.7,77777,9,999999999,0,0.0000,0,0,999.000,0.0,99.0
2025,1,11,10,0,?9?9?9?9E0?9?9?9?9*9?9?9?9?9*9?9*9*9?9*_?9?9*9?9*9,27.3,21.1,68,98090,1177,1414,390,778,562,310,93305,53377,34063,118,180,2.3,0,0,777.7,77777,9,999999999,0,0.0000,0,0,999.000,0.0,99.0
2025,1,11,11,0,?9?9?9?9E0?9?9?9?9*9?9?9?9?9*9?9*9*9?9*_?9?9*9?9*9,28.3,21.2,65,98090,1331,1414,395,932,611,358,111899,58029,39330,121,180,2.3,0,0,777.7,77777,9,999999999,0,0.0000,0,0,999.000,0.0,99.0
2025,1,11,12,0,?9?9?9?9E0?9?9?9?9*9?9?9?9?9*9?9*9*9?9*_?9?9*9?9*9,29.2,21.4,62,98090,1406,1414,400,1038,720,322,124618,68377,35467,103,180,2.3,0,0,777.7,77777,9,999999999,0,0.0000,0,0,999.000,0.0,99.0
2025,1,11,13,0,?9?9?9?9E0?9?9?9?9*9?9?9?9?9*9?9*9*9?9*_?9?9*9?9*9,29.8,21.5,61,98090,1399,1414,404,1074,863,220,128935,82003,24200,71,180,2.3,0,0,777.7,77777,9,999999999,0,0.0000,0,0,999.000,0.0,99.0
2025,1,11,14,0,?9?9?9?9E0?9?9?9?9*9?9?9?9?9*9?9*9*9?9*_?9?9*9?9*9,30.2,21.6,59,98090,1310,1414,406,1019,950,139,122328,90245,15302,48,180,2.3,0,0,777.7,77777,9,999999999,0,0.0000,0,0,999.000,0.0,99.0
2025,1,11,15,0,?9?9?9?9E0?9?9?9?9*9?9?9?9?9*9?9*9*9?9*_?9?9*9?9*9,30.5,21.6,59,98090,1144,1414,407,896,1022,68,107464,97113,7482,27,180,2.7,0,0,777.7,77777,9,999999999,0,0.0000,0,0,999.000,0.0,99.0
2025,1,11,16,0,?9?9?9?9E0?9?9?9?9*9?9?9?9?9*9?9*9*9?9*_?9?9*9?9*9,30.4,21.6,59,98090,914,1414,407,716,823,184,85894,78217,20196,90,180,2.3,0,0,777.7,77777,9,999999999,0,0.0000,0,0,999.000,0.0,99.0
2025,1,11,17,0,?9?9?9?9E0?9?9?9?9*9?9?9?9?9*9?9*9*9?9*_?9?9*9?9*9,30.0,21.5,60,98090,635,1414,418,502,787,149,60265,74789,16416,106,180,2.3,2,2,777.7,77777,9,999999999,0,0.0000,0,0,999.000,0.0,99.0
2025,1,11,18,0,?9?9?9?9E0?9?9?9?9*9?9?9?9?9*9?9*9*9?9*_?9?9*9?9*9,29.4,21.4,62,98090,325,1414,425,258,411,163,30914,39057,17983,227,180,2.3,5,5,777.7,77777,9,999999999,0,0.0000,0,0,999.000,0.0,99.0
2025,1,11,19,0,?9?9?9?9E0?9?9?9?9*9?9?9?9?9*9?9*9*9?9*_?9?9*9?9*9,28.5,21.3,64,98090,16,1414,436,35,0,35,4247,0,3893,3587,180,2.3,8,8,777.7,77777,9,999999999,0,0.0000,0,0,999.000,0.0,99.0
2025,1,11,20,0,?9?9?9?9E0?9?9?9?9*9?9?9?9?9*9?9*9*9?9*_?9?9*9?9*9,27.9,21.2,67,98090,0,1414,432,0,0,0,0,0,0,0,180,2.3,8,8,777.7,77777,9,999999999,0,0.0000,0,0,999.000,0.0,99.0
2025,1,11,21,0,?9?9?9?9E0?9?9?9?9*9?9?9?9?9*9?9*9*9?9*_?9?9*9?9*9,27.2,21.0,69,98090,0,1414,427,0,0,0,0,0,0,0,180,2.3,8,8,777.7,77777,9,999999999,0,0.0000,0,0,999.000,0.0,99.0
2025,1,11,22,0,?9?9?9?9E0?9?9?9?9*9?9?9?9?9*9?9*9*9?9*_?9?9*9?9*9,26.5,20.9,71,98090,0,1414,423,0,0,0,0,0,0,0,180,2.3,8,8,777.7,77777,9,999999999,0,0.0000,0,0,999.000,0.0,99.0
2025,1,11,23,0,?9?9?9?9E0?9?9?9?9*9?9?9?9?9*9?9*9*9?9*_?9?9*9?9*9,25.8,20.8,74,98090,0,1414,419,0,0,0,0,0,0,0,180,2.3,8,8,777.7,77777,9,999999999,0,0.0000,0,0,999.000,0.0,99.0
2025,1,11,24,0,?9?9?9?9E0?9?9?9?9*9?9?9?9?9*9?9*9*9?9*_?9?9*9?9*9,25.1,20.7,76,98090,0,1414,415,0,0,0,0,0,0,0,180,1.5,8,8,777.7,77777,9,999999999,0,0.0000,0,0,999.000,0.0,99.0
2025,1,12,1,0,?9?9?9?9E0?9?9?9?9*9?9?9?9?9*9?9*9*9?9*_?9?9*9?9*9,24.7,20.6,77,98090,0,1414,413,0,0,0,0,0,0,0,180,1.5,8,8,777.7,77777,9,999999999,0,0.0000,0,0,999.000,0.0,99.0
2025,1,12,2,0,?9?9?9?9E0?9?9?9?9*9?9?9?9?9*9?9*9*9?9*_?9?9*9?9*9,24.4,20.5,78,98090,0,1414,411,0,0,0,0,0,0,0,180,1.5,8,8,777.7,77777,9,999999999,0,0.0000,0,0,999.000,0.0,99.0
2025,1,12,3,0,?9?9?9?9E0?9?9?9?9*9?9?9?9?9*9?9*9*9?9*_?9?9*9?9*9,24.0,20.4,79,98090,0,1414,409,0,0,0,0,0,0,0,180,1.5,8,8,777.7,77777,9,999999999,0,0.0000,0,0,999.000,0.0,99.0
2025,1,12,4,0,?9?9?9?9E0?9?9?9?9*9?9?9?9?9*9?9*9*9?9*_?9?9*9?9*9,23.7,20.3,81,98090,0,1413,407,0,0,0,0,0,0,0,180,1.5,8,8,777.7,77777,9,999999999,0,0.0000,0,0,999.000,0.0,99.0
2025,1,12,5,0,?9?9?9?9E0?9?9?9?9*9?9?9?9?9*9?9*9*9?9*_?9?9*9?9*9,23.4,20.2,82,98090,0,1413,405,0,0,0,0,0,0,0,180,1.5,8,8,777.7,77777,9,999999999,0,0.0000,0,0,999.000,0.0,99.0
2025,1,12,6,0,?9?9?9?9E0?9?9?9?9*9?9?9?9?9*9?9*9*9?9*_?9?9*9?9*9,23.2,20.1,83,98090,62,1413,404,0,0,0,0,0,0,0,180,1.5,8,8,777.7,77777,9,999999999,0,0.0000,0,0,999.000,0.0,99.0
2025,1,12,7,0,?9?9?9?9E0?9?9?9?9*9?9?9?9?9*9?9*9*9?9*_?9?9*9?9*9,22.9,20.1,83,98090,376,1413,403,74,0,74,8887,0,8147,89,180,1.5,8,8,777.7,77777,9,999999999,0,0.0000,0,0,999.000,0.0,99.0
2025,1,12,8,0,?9?9?9?9E0?9?9?9?9*9?9?9?9?9*9?9*9*9?9*_?9?9*9?9*9,24.9,20.6,77,98090,682,1413,393,322,241,206,38614,22874,22634,136,180,1.5,3,3,777.7,77777,9,999999999,0,0.0000,0,0,999.000,0.0,99.0
2025,1,12,9,0,?9?9?9?9E0?9?9?9?9*9?9?9?9?9*9?9*9*9?9*_?9?9*9?9*9,26.2,21.0,72,98090,955,1413,384,583,453,277,69902,43014,30448,130,180,1.5,0,0,777.7,77777,9,999999999,0,0.0000,0,0,999.000,0.0,99.0
2025,1,12,10,0,?9?9?9?9E0?9?9?9?9*9?9?9?9?9*9?9*9*9?9*_?9?9*9?9*9,27.5,21.3,69,98090,1176,1413,391,810,634,282,97158,60233,31057,108,180,1.5,0,0,777.7,77777,9,999999999,0,0.0000,0,0,999.000,0.0,99.0
2025,1,12,11,0,?9?9?9?9E0?9?9?9?9*9?9?9?9?9*9?9*9*9?9*_?9?9*9?9*9,28.5,21.6,66,98090,1330,1413,397,981,741,285,117773,70360,31323,96,180,2.1,0,0,777.7,77777,9,999999999,0,0.0000,0,0,999.000,0.0,99.0
2025,1,12,12,0,?9?9?9?9E0?9?9?9?9*9?9?9?9?9*9?9*9*9?9*_?9?9*9?9*9,29.4,21.8,63,98090,1406,1413,402,1092,898,199,130991,85286,21845,64,180,2.9,0,0,777.7,77777,9,999999999,0,0.0000,0,0,999.000,0.0,99.0
2025,1,12,13,0,?9?9?9?9E0?9?9?9?9*9?9?9?9?9*9?9*9*9?9*_?9?9*9?9*9,30.1,22.0,61,98090,1399,1413,406,1123,1001,132,134767,95136,14468,42,180,3.8,0,0,777.7,77777,9,999999999,0,0.0000,0,0,999.000,0.0,99.0
2025,1,12,14,0,?9?9?9?9E0?9?9?9?9*9?9?9?9?9*9?9*9*9?9*_?9?9*9?9*9,30.6,22.1,60,98090,1311,1413,409,1085,949,204,130142,90193,22467,70,180,4.5,0,0,777.7,77777,9,999999999,0,0.0000,0,0,999.000,0.0,99.0
2025,1,12,15,0,?9?9?9?9E0?9?9?9?9*9?9?9?9?9*9?9*9*9?9*_?9?9*9?9*9,30.8,22.2,60,98090,1145,1413,410,969,821,304,116330,78030,33433,119,180,5.4,0,0,777.7,77777,9,999999999,0,0.0000,0,0,999.000,0.0,99.0
2025,1,12,16,0,?9?9?9?9E0?9?9?9?9*9?9?9?9?9*9?9*9*9?9*_?9?9*9?9*9,30.9,22.2,60,98090,915,1413,410,792,851,241,95074,80877,26547,119,180,5.1,0,0,777.7,77777,9,999999999,0,0.0000,0,0,999.000,0.0,99.0
2025,1,12,17,0,?9?9?9?9E0?9?9?9?9*9?9?9?9?9*9?9*9*9?9*_?9?9*9?9*9,30.5,22.1,60,98090,636,1413,408,561,828,189,67280,78707,20745,134,180,3.7,0,0,777.7,77777,9,999999999,0,0.0000,0,0,999.000,0.0,99.0
2025,1,12,18,0,?9?9?9?9E0?9?9?9?9*9?9?9?9?9*9?9*9*9?9*_?9?9*9?9*9,29.8,21.9,62,98090,326,1413,418,297,650,148,35674,61790,16277,205,180,2.8,2,2,777.7,77777,9,999999999,0,0.0000,0,0,999.000,0.0,99.0
2025,1,12,19,0,?9?9?9?9E0?9?9?9?9*9?9?9?9?9*9?9*9*9?9*_?9?9*9?9*9,29.0,21.7,65,98090,16,1413,439,51,0,51,6092,0,5585,4686,180,2.4,8,8,777.7,77777,9,999999999,0,0.0000,0,0,999.000,0.0,99.0
2025,1,12,20,0,?9?9?9?9E0?9?9?9?9*9?9?9?9?9*9?9*9*9?9*_?9?9*9?9*9,28.1,21.5,67,98090,0,1413,434,0,0,0,0,0,0,0,180,1.6,8,8,777.7,77777,9,999999999,0,0.0000,0,0,999.000,0.0,99.0
2025,1,12,21,0,?9?9?9?9E0?9?9?9?9*9?9?9?9?9*9?9*9*9?9*_?9?9*9?9*9,27.4,21.3,69,98090,0,1413,429,0,0,0,0,0,0,0,180,1.5,8,8,777.7,77777,9,999999999,0,0.0000,0,0,999.000,0.0,99.0
2025,1,12,22,0,?9?9?9?9E0?9?9?9?9*9?9?9?9?9*9?9*9*9?9*_?9?9*9?9*9,26.6,21.1,71,98090,0,1413,424,0,0,0,0,0,0,0,180,1.5,8,8,777.7,77777,9,999999999,0,0.0000,0,0,999.000,0.0,99.0
2025,1,12,23,0,?9?9?9?9E0?9?9?9?9*9?9?9?9?9*9?9*9*9?9*_?9?9*9?9*9,25.8,20.9,74,98090,0,1413,419,0,0,0,0,0,0,0,180,1.5,8,8,777.7,77777,9,999999999,0,0.0000,0,0,999.000,0.0,99.0
2025,1,12,24,0,?9?9?9?9E0?9?9?9?9*9?9?9?9?9*9?9*9*9?9*_?9?9*9?9*9,25.0,20.6,78,98090,0,1413,414,0,0,0,0,0,0,0,180,1.3,8,8,777.7,77777,9,999999999,0,0.0000,0,0,999.000,0.0,99.0
2025,1,13,1,0,?9?9?9?9E0?9?9?9?9*9?9?9?9?9*9?9*9*9?9*_?9?9*9?9*9,24.6,20.5,79,98090,0,1413,412,0,0,0,0,0,0,0,180,1.3,8,8,777.7,77777,9,999999999,0,0.0000,0,0,999.000,0.2,99.0
2025,1,13,2,0,?9?9?9?9E0?9?9?9?9*9?9?9?9?9*9?9*9*9?9*_?9?9*9?9*9,24.2,20.4,80,98090,0,1413,410,0,0,0,0,0,0,0,180,1.3,8,8,777.7,77777,9,999999999,0,0.0000,0,0,999.000,0.0,99.0
2025,1,13,3,0,?9?9?9?9E0?9?9?9?9*9?9?9?9?9*9?9*9*9?9*_?9?9*9?9*9,23.8,20.4,77,98090,0,1413,408,0,0,0,0,0,0,0,180,1.3,8,8,777.7,77777,9,999999999,0,0.0000,0,0,999.000,0.0,99.0
2025,1,13,4,0,?9?9?9?9E0?9?9?9?9*9?9?9?9?9*9?9*9*9?9*_?9?9*9?9*9,23.4,20.3,79,98090,0,1413,405,0,0,0,0,0,0,0,180,1.3,8,8,777.7,77777,9,999999999,0,0.0000,0,0,999.000,0.0,99.0
2025,1,13,5,0,?9?9?9?9E0?9?9?9?9*9?9?9?9?9*9?9*9*9?9*_?9?9*9?9*9,23.0,20.2,80,98090,0,1413,403,0,0,0,0,0,0,0,180,1.3,8,8,777.7,77777,9,999999999,0,0.0000,0,0,999.000,0.0,99.0
2025,1,13,6,0,?9?9?9?9E0?9?9?9?9*9?9?9?9?9*9?9*9*9?9*_?9?9*9?9*9,22.8,20.2,81,98090,58,1413,402,0,0,0,0,0,0,0,180,1.3,8,8,777.7,77777,9,999999999,0,0.0000,0,0,999.000,0.0,99.0
2025,1,13,7,0,?9?9?9?9E0?9?9?9?9*9?9?9?9?9*9?9*9*9?9*_?9?9*9?9*9,22.5,20.1,86,98090,373,1413,400,53,0,53,6414,0,5880,65,180,1.3,8,8,777.7,77777,9,999999999,0,0.0000,0,0,999.000,0.0,99.0
2025,1,13,8,0,?9?9?9?9E0?9?9?9?9*9?9?9?9?9*9?9*9*9?9*_?9?9*9?9*9,24.4,20.5,75,98090,679,1413,405,240,79,202,28752,7509,22183,134,180,1.3,7,7,777.7,77777,9,999999999,0,0.0000,0,0,999.000,0.0,99.0
2025,1,13,9,0,?9?9?9?9E0?9?9?9?9*9?9?9?9?9*9?9*9*9?9*_?9?9*9?9*9,25.1,20.6,73,98090,953,1413,415,323,38,297,38701,3601,32667,140,180,1.3,8,8,777.7,77777,9,999999999,0,0.0000,0,0,999.000,0.0,99.0
2025,1,13,10,0,?9?9?9?9E0?9?9?9?9*9?9?9?9?9*9?9*9*9?9*_?9?9*9?9*9,25.9,20.7,70,98090,1174,1413,413,457,54,411,54788,5161,45258,158,180,1.7,7,7,777.7,77777,9,999999999,0,0.0000,0,0,999.000,0.0,99.0
2025,1,13,11,0,?9?9?9?9E0?9?9?9?9*9?9?9?9?9*9?9*9*9?9*_?9?9*9?9*9,26.6,20.9,68,98090,1329,1413,424,537,87,455,64405,8236,50073,154,180,2.9,8,8,777.7,77777,9,999999999,0,0.0000,0,0,999.000,0.0,99.0
2025,1,13,12,0,?9?9?9?9E0?9?9?9?9*9?9?9?9?9*9?9*9*9?9*_?9?9*9?9*9,27.5,21.0,66,98090,1406,1413,418,731,200,531,87688,19046,58448,170,180,3.4,6,6,777.7,77777,9,999999999,0,0.0000,0,0,999.000,0.0,99.0
2025,1,13,13,0,?9?9?9?9E0?9?9?9?9*9?9?9?9?9*9?9*9*9?9*_?9?9*9?9*9,28.5,21.1,63,98090,1400,1413,413,920,503,422,110376,47760,46413,136,180,4.1,3,3,777.7,77777,9,999999999,0,0.0000,0,0,999.000,0.0,99.0
2025,1,13,14,0,?9?9?9?9E0?9?9?9?9*9?9?9?9?9*9?9*9*9?9*_?9?9*9?9*9,29.4,21.3,61,98090,1311,1413,401,1020,890,195,122434,84536,21426,67,180,5.0,0,0,777.7,77777,9,999999999,0,0.0000,0,0,999.000,0.0,99.0
2025,1,13,15,0,?9?9?9?9E0?9?9?9?9*9?9?9?9?9*9?9*9*9?9*_?9?9*9?9*9,30.0,21.4,59,98090,1146,1413,404,985,619,484,118243,58791,53190,190,180,4.2,0,0,777.7,77777,9,999999999,0,0.0000,0,0,999.000,0.0,99.0
2025,1,13,16,0,?9?9?9?9E0?9?9?9?9*9?9?9?9?9*9?9*9*9?9*_?9?9*9?9*9,29.9,21.4,60,98090,916,1413,432,540,406,277,64781,38559,30456,136,180,4.5,6,6,777.7,77777,9,999999999,0,0.0000,0,0,999.000,0.0,99.0
2025,1,13,17,0,?9?9?9?9E0?9?9?9?9*9?9?9?9?9*9?9*9*9?9*_?9?9*9?9*9,29.4,21.3,61,98090,636,1413,434,336,381,164,40284,36183,18083,116,180,4.4,7,7,777.7,77777,9,999999999,0,0.0000,0,0,999.000,0.0,99.0
2025,1,13,18,0,?9?9?9?9E0?9?9?9?9*9?9?9?9?9*9?9*9*9?9*_?9?9*9?9*9,28.7,21.2,63,98090,327,1413,437,170,494,56,20351,46958,6146,77,180,3.3,8,8,777.7,77777,9,999999999,0,0.0000,0,0,999.000,0.0,99.0
2025,1,13,19,0,?9?9?9?9E0?9?9?9?9*9?9?9?9?9*9?9*9*9?9*_?9?9*9?9*9,27.9,21.0,69,98090,16,1413,432,33,0,33,3918,0,3592,2829,180,2.8,8,8,777.7,77777,9,999999999,0,0.0000,0,0,999.000,0.0,99.0
2025,1,13,20,0,?9?9?9?9E0?9?9?9?9*9?9?9?9?9*9?9*9*9?9*_?9?9*9?9*9,27.2,21.0,71,98090,0,1413,428,0,0,0,0,0,0,0,180,1.9,8,8,777.7,77777,9,999999999,0,0.0000,0,0,999.000,0.1,99.0
2025,1,13,21,0,?9?9?9?9E0?9?9?9?9*9?9?9?9?9*9?9*9*9?9*_?9?9*9?9*9,26.6,20.8,73,98090,0,1413,424,0,0,0,0,0,0,0,180,1.3,8,8,777.7,77777,9,999999999,0,0.0000,0,0,999.000,0.0,99.0
2025,1,13,22,0,?9?9?9?9E0?9?9?9?9*9?9?9?9?9*9?9*9*9?9*_?9?9*9?9*9,25.9,20.7,75,98090,0,1413,420,0,0,0,0,0,0,0,180,1.3,8,8,777.7,77777,9,999999999,0,0.0000,0,0,999.000,0.1,99.0
2025,1,13,23,0,?9?9?9?9E0?9?9?9?9*9?9?9?9?9*9?9*9*9?9*_?9?9*9?9*9,25.3,20.6,81,98090,0,1413,416,0,0,0,0,0,0,0,180,1.3,8,8,777.7,77777,9,999999999,2,0.0000,0,0,999.000,2.6,99.0
2025,1,13,24,0,?9?9?9?9E0?9?9?9?9*9?9?9?9?9*9?9*9*9?9*_?9?9*9?9*9,24.6,21.2,82,98090,0,1413,414,0,0,0,0,0,0,0,180,1.3,8,8,777.7,77777,9,999999999,0,0.0000,0,0,999.000,0.0,99.0
2025,1,14,1,0,?9?9?9?9E0?9?9?9?9*9?9?9?9?9*9?9*9*9?9*_?9?9*9?9*9,24.3,21.2,83,98090,0,1413,412,0,0,0,0,0,0,0,180,1.3,8,8,777.7,77777,9,999999999,0,0.0000,0,0,999.000,0.0,99.0
2025,1,14,2,0,?9?9?9?9E0?9?9?9?9*9?9?9?9?9*9?9*9*9?9*_?9?9*9?9*9,24.0,21.2,84,98090,0,1413,410,0,0,0,0,0,0,0,180,1.3,8,8,777.7,77777,9,999999999,0,0.0000,0,0,999.000,0.0,99.0
2025,1,14,3,0,?9?9?9?9E0?9?9?9?9*9?9?9?9?9*9?9*9*9?9*_?9?9*9?9*9,23.7,21.2,86,98090,0,1413,408,0,0,0,0,0,0,0,180,1.3,8,8,777.7,77777,9,999999999,0,0.0000,0,0,999.000,0.1,99.0
2025,1,14,4,0,?9?9?9?9E0?9?9?9?9*9?9?9?9?9*9?9*9*9?9*_?9?9*9?9*9,23.3,21.2,91,98090,0,1413,406,0,0,0,0,0,0,0,180,1.3,8,8,777.7,77777,9,999999999,2,0.0000,0,0,999.000,2.6,99.0
2025,1,14,5,0,?9?9?9?9E0?9?9?9?9*9?9?9?9?9*9?9*9*9?9*_?9?9*9?9*9,23.0,21.2,88,98090,0,1413,405,0,0,0,0,0,0,0,180,1.3,8,8,777.7,77777,9,999999999,0,0.0000,0,0,999.000,0.2,99.0
2025,1,14,6,0,?9?9?9?9E0?9?9?9?9*9?9?9?9?9*9?9*9*9?9*_?9?9*9?9*9,22.8,21.2,89,98090,55,1413,404,0,0,0,0,0,0,0,180,1.3,8,8,777.7,77777,9,999999999,0,0.0000,0,0,999.000,0.1,99.0
2025,1,14,7,0,?9?9?9?9E0?9?9?9?9*9?9?9?9?9*9?9*9*9?9*_?9?9*9?9*9,22.6,21.2,86,98090,369,1413,402,51,0,51,6115,0,5606,62,180,1.3,8,8,777.7,77777,9,999999999,0,0.0000,0,0,999.000,0.0,99.0
2025,1,14,8,0,?9?9?9?9E0?9?9?9?9*9?9?9?9?9*9?9*9*9?9*_?9?9*9?9*9,23.9,21.2,85,98090,676,1413,409,143,0,143,17209,0,15775,95,180,1.3,8,8,777.7,77777,9,999999999,0,0.0000,0,0,999.000,0.0,99.0
2025,1,14,9,0,?9?9?9?9E0?9?9?9?9*9?9?9?9?9*9?9*9*9?9*_?9?9*9?9*9,24.8,21.2,81,98090,950,1413,415,315,32,293,37754,3044,32239,139,180,1.3,8,8,777.7,77777,9,999999999,0,0.0000,0,0,999.000,0.0,99.0
2025,1,14,10,0,?9?9?9?9E0?9?9?9?9*9?9?9?9?9*9?9*9*9?9*_?9?9*9?9*9,25.7,21.3,73,98090,1173,1413,420,451,37,421,54178,3534,46267,161,180,1.4,8,8,777.7,77777,9,999999999,0,0.0000,0,0,999.000,0.0,99.0
2025,1,14,11,0,?9?9?9?9E0?9?9?9?9*9?9?9?9?9*9?9*9*9?9*_?9?9*9?9*9,26.5,21.3,70,98090,1328,1413,418,554,99,461,66521,9391,50761,156,180,1.9,7,7,777.7,77777,9,999999999,0,0.0000,0,0,999.000,0.0,99.0
2025,1,14,12,0,?9?9?9?9E0?9?9?9?9*9?9?9?9?9*9?9*9*9?9*_?9?9*9?9*9,27.4,21.3,67,98090,1405,1413,418,721,190,532,86548,18087,58510,170,180,2.9,6,6,777.7,77777,9,999999999,0,0.0000,0,0,999.000,0.0,99.0
2025,1,14,13,0,?9?9?9?9E0?9?9?9?9*9?9?9?9?9*9?9*9*9?9*_?9?9*9?9*9,28.3,21.3,64,98090,1400,1413,416,853,389,468,102325,36927,51447,150,180,3.6,4,4,777.7,77777,9,999999999,0,0.0000,0,0,999.000,0.0,99.0
2025,1,14,14,0,?9?9?9?9E0?9?9?9?9*9?9?9?9?9*9?9*9*9?9*_?9?9*9?9*9,29.0,21.3,62,98090,1312,1413,416,860,531,368,103240,50424,40446,126,180,4.6,3,3,777.7,77777,9,999999999,0,0.0000,0,0,999.000,0.0,99.0
2025,1,14,15,0,?9?9?9?9E0?9?9?9?9*9?9?9?9?9*9?9*9*9?9*_?9?9*9?9*9,29.6,21.3,61,98090,1147,1413,402,872,835,195,104693,79351,21407,76,180,4.8,0,0,777.7,77777,9,999999999,0,0.0000,0,0,999.000,0.0,99.0
2025,1,14,16,0,?9?9?9?9E0?9?9?9?9*9?9?9?9?9*9?9*9*9?9*_?9?9*9?9*9,29.8,21.3,60,98090,917,1413,403,739,809,214,88620,76828,23540,105,180,4.7,0,0,777.7,77777,9,999999999,0,0.0000,0,0,999.000,0.0,99.0
2025,1,14,17,0,?9?9?9?9E0?9?9?9?9*9?9?9?9?9*9?9*9*9?9*_?9?9*9?9*9,29.9,21.3,60,98090,637,1413,404,614,726,287,73715,69001,31588,203,180,4.6,0,0,777.7,77777,9,999999999,0,0.0000,0,0,999.000,0.0,99.0
2025,1,14,18,0,?9?9?9?9E0?9?9?9?9*9?9?9?9?9*9?9*9*9?9*_?9?9*9?9*9,29.5,21.3,61,98090,327,1413,402,361,548,235,43332,52090,25820,324,180,4.3,0,0,777.7,77777,9,999999999,0,0.0000,0,0,999.000,0.0,99.0
2025,1,14,19,0,?9?9?9?9E0?9?9?9?9*9?9?9?9?9*9?9*9*9?9*_?9?9*9?9*9,28.7,21.3,63,98090,17,1413,421,77,0,77,9259,0,8488,6436,180,3.0,5,5,777.7,77777,9,999999999,0,0.0000,0,0,999.000,0.0,99.0
2025,1,14,20,0,?9?9?9?9E0?9?9?9?9*9?9?9?9?9*9?9*9*9?9*_?9?9*9?9*9,27.8,21.3,66,98090,0,1413,416,0,0,0,0,0,0,0,180,2.0,5,5,777.7,77777,9,999999999,0,0.0000,0,0,999.000,0.0,99.0
2025,1,14,21,0,?9?9?9?9E0?9?9?9?9*9?9?9?9?9*9?9*9*9?9*_?9?9*9?9*9,26.9,21.3,69,98090,0,1413,414,0,0,0,0,0,0,0,180,1.3,6,6,777.7,77777,9,999999999,0,0.0000,0,0,999.000,0.0,99.0
2025,1,14,22,0,?9?9?9?9E0?9?9?9?9*9?9?9?9?9*9?9*9*9?9*_?9?9*9?9*9,25.9,21.3,73,98090,0,1413,409,0,0,0,0,0,0,0,180,1.3,6,6,777.7,77777,9,999999999,0,0.0000,0,0,999.000,0.0,99.0
2025,1,14,23,0,?9?9?9?9E0?9?9?9?9*9?9?9?9?9*9?9*9*9?9*_?9?9*9?9*9,25.0,21.2,76,98090,0,1413,404,0,0,0,0,0,0,0,180,1.3,6,6,777.7,77777,9,999999999,0,0.0000,0,0,999.000,0.0,99.0
2025,1,14,24,0,?9?9?9?9E0?9?9?9?9*9?9?9?9?9*9?9*9*9?9*_?9?9*9?9*9,24.0,21.1,79,98090,0,1413,399,0,0,0,0,0,0,0,180,2.2,6,6,777.7,77777,9,999999999,0,0.0000,0,0,999.000,0.0,99.0
2025,1,15,1,0,?9?9?9?9E0?9?9?9?9*9?9?9?9?9*9?9*9*9?9*_?9?9*9?9*9,23.6,21.0,85,98090,0,1413,396,0,0,0,0,0,0,0,180,2.2,6,6,777.7,77777,9,999999999,0,0.0000,0,0,999.000,0.0,99.0
2025,1,15,2,0,?9?9?9?9E0?9?9?9?9*9?9?9?9?9*9?9*9*9?9*_?9?9*9?9*9,23.1,20.9,82,98090,0,1413,398,0,0,0,0,0,0,0,180,2.2,7,7,777.7,77777,9,999999999,0,0.0000,0,0,999.000,0.0,99.0
2025,1,15,3,0,?9?9?9?9E0?9?9?9?9*9?9?9?9?9*9?9*9*9?9*_?9?9*9?9*9,22.6,20.8,89,98090,0,1413,396,0,0,0,0,0,0,0,180,2.3,7,7,777.7,77777,9,999999999,0,0.0000,0,0,999.000,0.0,99.0
2025,1,15,4,0,?9?9?9?9E0?9?9?9?9*9?9?9?9?9*9?9*9*9?9*_?9?9*9?9*9,22.2,20.7,91,98090,0,1413,393,0,0,0,0,0,0,0,180,2.3,7,7,777.7,77777,9,999999999,0,0.0000,0,0,999.000,0.0,99.0
2025,1,15,5,0,?9?9?9?9E0?9?9?9?9*9?9?9?9?9*9?9*9*9?9*_?9?9*9?9*9,21.7,20.6,93,98090,0,1413,397,0,0,0,0,0,0,0,180,2.7,8,8,777.7,77777,9,999999999,0,0.0000,0,0,999.000,0.0,99.0
2025,1,15,6,0,?9?9?9?9E0?9?9?9?9*9?9?9?9?9*9?9*9*9?9*_?9?9*9?9*9,21.4,20.5,94,98090,52,1413,395,0,0,0,0,0,0,0,180,2.2,8,8,777.7,77777,9,999999999,0,0.0000,0,0,999.000,0.3,99.0
2025,1,15,7,0,?9?9?9?9E0?9?9?9?9*9?9?9?9?9*9?9*9*9?9*_?9?9*9?9*9,21.1,20.5,95,98090,366,1413,393,27,0,27,3296,0,3022,34,180,2.2,8,8,777.7,77777,9,999999999,0,0.0000,0,0,999.000,0.2,99.0
2025,1,15,8,0,?9?9?9?9E0?9?9?9?9*9?9?9?9?9*9?9*9*9?9*_?9?9*9?9*9,22.9,20.8,88,98090,674,1413,404,129,0,129,15490,0,14199,86,180,2.2,8,8,777.7,77777,9,999999999,0,0.0000,0,0,999.000,0.1,99.0
2025,1,15,9,0,?9?9?9?9E0?9?9?9?9*9?9?9?9?9*9?9*9*9?9*_?9?9*9?9*9,24.1,21.1,78,98090,948,1413,411,235,10,229,28253,980,25137,108,180,2.3,8,8,777.7,77777,9,999999999,0,0.0000,0,0,999.000,0.0,99.0
2025,1,15,10,0,?9?9?9?9E0?9?9?9?9*9?9?9?9?9*9?9*9*9?9*_?9?9*9?9*9,25.3,21.3,79,98090,1171,1413,417,329,17,314,39438,1631,34586,121,180,2.2,8,8,777.7,77777,9,999999999,0,0.0000,0,0,999.000,0.1,99.0
2025,1,15,11,0,?9?9?9?9E0?9?9?9?9*9?9?9?9?9*9?9*9*9?9*_?9?9*9?9*9,26.3,21.5,70,98090,1327,1413,423,400,29,373,48025,2713,41073,127,180,2.2,8,8,777.7,77777,9,999999999,0,0.0000,0,0,999.000,0.0,99.0
2025,1,15,12,0,?9?9?9?9E0?9?9?9?9*9?9?9?9?9*9?9*9*9?9*_?9?9*9?9*9,27.1,21.7,68,98090,1405,1413,428,445,32,413,53350,3051,45392,132,180,2.2,8,8,777.7,77777,9,999999999,0,0.0000,0,0,999.000,0.0,99.0
2025,1,15,13,0,?9?9?9?9E0?9?9?9?9*9?9?9?9?9*9?9*9*9?9*_?9?9*9?9*9,27.8,21.9,70,98090,1400,1413,432,458,35,423,55015,3366,46569,136,180,2.2,8,8,777.7,77777,9,999999999,0,0.0000,0,0,999.000,0.1,99.0
2025,1,15,14,0,?9?9?9?9E0?9?9?9?9*9?9?9?9?9*9?9*9*9?9*_?9?9*9?9*9,28.2,21.9,69,98090,1312,1413,435,441,40,404,52902,3759,44452,139,180,2.2,8,8,777.7,77777,9,999999999,0,0.0000,0,0,999.000,0.1,99.0
2025,1,15,15,0,?9?9?9?9E0?9?9?9?9*9?9?9?9?9*9?9*9*9?9*_?9?9*9?9*9,28.5,22.0,68,98090,1148,1413,436,393,46,356,47162,4344,39148,139,180,2.2,8,8,777.7,77777,9,999999999,0,0.0000,0,0,999.000,0.2,99.0
2025,1,15,16,0,?9?9?9?9E0?9?9?9?9*9?9?9?9?9*9?9*9*9?9*_?9?9*9?9*9,28.5,22.0,68,98090,918,1413,436,319,40,293,38221,3801,32179,143,180,2.2,8,8,777.7,77777,9,999999999,0,0.0000,0,0,999.000,0.6,99.0
2025,1,15,17,0,?9?9?9?9E0?9?9?9?9*9?9?9?9?9*9?9*9*9?9*_?9?9*9?9*9,27.7,21.8,71,98090,638,1413,432,117,0,117,14000,0,12834,82,180,2.2,8,8,777.7,77777,9,999999999,0,0.0000,0,0,999.000,0.4,99.0
2025,1,15,18,0,?9?9?9?9E0?9?9?9?9*9?9?9?9?9*9?9*9*9?9*_?9?9*9?9*9,27.1,21.7,72,98090,328,1413,428,113,101,90,13608,9561,9919,124,180,2.2,8,8,777.7,77777,9,999999999,0,0.0000,0,0,999.000,0.4,99.0
2025,1,15,19,0,?9?9?9?9E0?9?9?9?9*9?9?9?9?9*9?9*9*9?9*_?9?9*9?9*9,26.3,21.5,80,98090,17,1413,423,18,0,18,2162,0,1982,1480,180,2.2,8,8,777.7,77777,9,999999999,1,0.0000,0,0,999.000,1.4,99.0
2025,1,15,20,0,?9?9?9?9E0?9?9?9?9*9?9?9?9?9*9?9*9*9?9*_?9?9*9?9*9,25.7,21.4,87,98090,0,1413,420,0,0,0,0,0,0,0,180,2.5,8,8,777.7,77777,9,999999999,27,0.0000,0,0,999.000,27.9,99.0
2025,1,15,21,0,?9?9?9?9E0?9?9?9?9*9?9?9?9?9*9?9*9*9?9*_?9?9*9?9*9,25.1,21.3,79,98090,0,1413,416,0,0,0,0,0,0,0,180,2.5,8,8,777.7,77777,9,999999999,0,0.0000,0,0,999.000,0.8,99.0
2025,1,15,22,0,?9?9?9?9E0?9?9?9?9*9?9?9?9?9*9?9*9*9?9*_?9?9*9?9*9,24.5,21.2,86,98090,0,1413,413,0,0,0,0,0,0,0,180,2.5,8,8,777.7,77777,9,999999999,1,0.0000,0,0,999.000,1.0,99.0
2025,1,15,23,0,?9?9?9?9E0?9?9?9?9*9?9?9?9?9*9?9*9*9?9*_?9?9*9?9*9,23.9,21.0,89,98090,0,1413,409,0,0,0,0,0,0,0,180,2.7,8,8,777.7,77777,9,999999999,2,0.0000,0,0,999.000,2.4,99.0
2025,1,15,24,0,?9?9?9?9E0?9?9?9?9*9?9?9?9?9*9?9*9*9?9*_?9?9*9?9*9,23.3,21.4,88,98090,0,1413,406,0,0,0,0,0,0,0,180,4.0,8,8,777.7,77777,9,999999999,0,0.0000,0,0,999.000,0.1,99.0
2025,1,16,1,0,?9?9?9?9E0?9?9?9?9*9?9?9?9?9*9?9*9*9?9*_?9?9*9?9*9,23.0,21.3,85,98090,0,1413,405,0,0,0,0,0,0,0,180,3.6,8,8,777.7,77777,9,999999999,0,0.0000,0,0,999.000,0.0,99.0
2025,1,16,2,0,?9?9?9?9E0?9?9?9?9*9?9?9?9?9*9?9*9*9?9*_?9?9*9?9*9,22.7,21.3,87,98090,0,1413,403,0,0,0,0,0,0,0,180,2.8,8,8,777.7,77777,9,999999999,0,0.0000,0,0,999.000,0.0,99.0
2025,1,16,3,0,?9?9?9?9E0?9?9?9?9*9?9?9?9?9*9?9*9*9?9*_?9?9*9?9*9,22.4,21.3,88,98090,0,1413,401,0,0,0,0,0,0,0,180,3.3,8,8,777.7,77777,9,999999999,0,0.0000,0,0,999.000,0.0,99.0
2025,1,16,4,0,?9?9?9?9E0?9?9?9?9*9?9?9?9?9*9?9*9*9?9*_?9?9*9?9*9,22.1,21.3,95,98090,0,1413,400,0,0,0,0,0,0,0,180,3.1,8,8,777.7,77777,9,999999999,0,0.0000,0,0,999.000,0.1,99.0
2025,1,16,5,0,?9?9?9?9E0?9?9?9?9*9?9?9?9?9*9?9*9*9?9*_?9?9*9?9*9,21.8,21.3,96,98090,0,1413,398,0,0,0,0,0,0,0,180,3.4,8,8,777.7,77777,9,999999999,0,0.0000,0,0,999.000,0.2,99.0
2025,1,16,6,0,?9?9?9?9E0?9?9?9?9*9?9?9?9?9*9?9*9*9?9*_?9?9*9?9*9,21.6,21.3,92,98090,48,1413,397,0,0,0,0,0,0,0,180,3.6,8,8,777.7,77777,9,999999999,0,0.0000,0,0,999.000,0.0,99.0
2025,1,16,7,0,?9?9?9?9E0?9?9?9?9*9?9?9?9?9*9?9*9*9?9*_?9?9*9?9*9,21.4,21.3,98,98090,363,1413,396,64,0,64,7644,0,7007,79,180,3.4,8,8,777.7,77777,9,999999999,0,0.0000,0,0,999.000,0.2,99.0
2025,1,16,8,0,?9?9?9?9E0?9?9?9?9*9?9?9?9?9*9?9*9*9?9*_?9?9*9?9*9,23.6,21.4,82,98090,671,1413,408,119,0,119,14245,0,13058,80,180,3.2,8,8,777.7,77777,9,999999999,0,0.0000,0,0,999.000,0.0,99.0
2025,1,16,9,0,?9?9?9?9E0?9?9?9?9*9?9?9?9?9*9?9*9*9?9*_?9?9*9?9*9,24.4,21.4,88,98090,946,1413,413,186,2,184,22264,175,20272,88,180,3.3,8,8,777.7,77777,9,999999999,1,0.0000,0,0,999.000,1.0,99.0
2025,1,16,10,0,?9?9?9?9E0?9?9?9?9*9?9?9?9?9*9?9*9*9?9*_?9?9*9?9*9,25.6,21.5,77,98090,1169,1413,419,317,11,308,38039,1054,33859,118,180,3.8,8,8,777.7,77777,9,999999999,0,0.0000,0,0,999.000,0.0,99.0
2025,1,16,11,0,?9?9?9?9E0?9?9?9?9*9?9?9?9?9*9?9*9*9?9*_?9?9*9?9*9,26.7,21.5,78,98090,1326,1413,425,386,26,362,46366,2486,39800,123,180,3.5,8,8,777.7,77777,9,999999999,2,0.0000,0,0,999.000,2.4,99.0
2025,1,16,12,0,?9?9?9?9E0?9?9?9?9*9?9?9?9?9*9?9*9*9?9*_?9?9*9?9*9,27.5,21.6,70,98090,1404,1413,430,429,29,400,51538,2790,44031,128,180,4.1,8,8,777.7,77777,9,999999999,0,0.0000,0,0,999.000,0.0,99.0
2025,1,16,13,0,?9?9?9?9E0?9?9?9?9*9?9?9?9?9*9?9*9*9?9*_?9?9*9?9*9,28.2,21.6,67,98090,1400,1413,434,443,32,411,53171,3055,45235,132,180,4.5,8,8,777.7,77777,9,999999999,0,0.0000,0,0,999.000,0.0,99.0
2025,1,16,14,0,?9?9?9?9E0?9?9?9?9*9?9?9?9?9*9?9*9*9?9*_?9?9*9?9*9,28.7,21.6,65,98090,1313,1413,437,426,35,393,51146,3367,43263,135,180,3.8,8,8,777.7,77777,9,999999999,0,0.0000,0,0,999.000,0.1,99.0
2025,1,16,15,0,?9?9?9?9E0?9?9?9?9*9?9?9?9?9*9?9*9*9?9*_?9?9*9?9*9,28.9,21.7,64,98090,1148,1413,438,380,40,347,45611,3825,38211,136,180,3.5,8,8,777.7,77777,9,999999999,0,0.0000,0,0,999.000,0.4,99.0
2025,1,16,16,0,?9?9?9?9E0?9?9?9?9*9?9?9?9?9*9?9*9*9?9*_?9?9*9?9*9,28.9,21.7,64,98090,918,1413,438,308,24,292,36973,2289,32170,143,180,4.8,8,8,777.7,77777,9,999999999,0,0.0000,0,0,999.000,0.3,99.0
2025,1,16,17,0,?9?9?9?9E0?9?9?9?9*9?9?9?9?9*9?9*9*9?9*_?9?9*9?9*9,28.6,21.6,71,98090,638,1413,436,216,60,189,25914,5740,20755,133,180,4.0,8,8,777.7,77777,9,999999999,1,0.0000,0,0,999.000,1.4,99.0
2025,1,16,18,0,?9?9?9?9E0?9?9?9?9*9?9?9?9?9*9?9*9*9?9*_?9?9*9?9*9,27.9,21.6,68,98090,328,1413,432,112,92,91,13471,8699,10021,125,180,3.3,8,8,777.7,77777,9,999999999,0,0.0000,0,0,999.000,0.0,99.0
2025,1,16,19,0,?9?9?9?9E0?9?9?9?9*9?9?9?9?9*9?9*9*9?9*_?9?9*9?9*9,27.1,21.6,71,98090,17,1413,428,17,0,17,2094,0,1920,1443,180,2.9,8,8,777.7,77777,9,999999999,0,0.0000,0,0,999.000,0.1,99.0
2025,1,16,20,0,?9?9?9?9E0?9?9?9?9*9?9?9?9?9*9?9*9*9?9*_?9?9*9?9*9,26.5,21.5,84,98090,0,1413,424,0,0,0,0,0,0,0,180,2.8,8,8,777.7,77777,9,999999999,27,0.0000,0,0,999.000,27.9,99.0
2025,1,16,21,0,?9?9?9?9E0?9?9?9?9*9?9?9?9?9*9?9*9*9?9*_?9?9*9?9*9,25.9,21.5,76,98090,0,1413,421,0,0,0,0,0,0,0,180,2.7,8,8,777.7,77777,9,999999999,0,0.0000,0,0,999.000,0.6,99.0
2025,1,16,22,0,?9?9?9?9E0?9?9?9?9*9?9?9?9?9*9?9*9*9?9*_?9?9*9?9*9,25.3,21.5,79,98090,0,1413,417,0,0,0,0,0,0,0,180,3.7,8,8,777.7,77777,9,999999999,0,0.0000,0,0,999.000,0.8,99.0
2025,1,16,23,0,?9?9?9?9E0?9?9?9?9*9?9?9?9?9*9?9*9*9?9*_?9?9*9?9*9,24.7,21.4,82,98090,0,1413,414,0,0,0,0,0,0,0,180,3.3,8,8,777.7,77777,9,999999999,0,0.0000,0,0,999.000,0.4,99.0
2025,1,16,24,0,?9?9?9?9E0?9?9?9?9*9?9?9?9?9*9?9*9*9?9*_?9?9*9?9*9,24.1,20.9,82,98090,0,1413,410,0,0,0,0,0,0,0,180,1.3,8,8,777.7,77777,9,999999999,0,0.0000,0,0,999.000,0.0,99.0
2025,1,17,1,0,?9?9?9?9E0?9?9?9?9*9?9?9?9?9*9?9*9*9?9*_?9?9*9?9*9,23.8,20.8,83,98090,0,1413,408,0,0,0,0,0,0,0,180,1.3,8,8,777.7,77777,9,999999999,0,0.0000,0,0,999.000,0.0,99.0
2025,1,17,2,0,?9?9?9?9E0?9?9?9?9*9?9?9?9?9*9?9*9*9?9*_?9?9*9?9*9,23.5,20.7,84,98090,0,1413,407,0,0,0,0,0,0,0,180,1.3,8,8,777.7,77777,9,999999999,0,0.0000,0,0,999.000,0.1,99.0
2025,1,17,3,0,?9?9?9?9E0?9?9?9?9*9?9?9?9?9*9?9*9*9?9*_?9?9*9?9*9,23.2,20.7,84,98090,0,1413,405,0,0,0,0,0,0,0,180,1.3,8,8,777.7,77777,9,999999999,0,0.0000,0,0,999.000,0.3,99.0
2025,1,17,4,0,?9?9?9?9E0?9?9?9?9*9?9?9?9?9*9?9*9*9?9*_?9?9*9?9*9,22.9,20.6,89,98090,0,1413,403,0,0,0,0,0,0,0,180,1.3,8,8,777.7,77777,9,999999999,4,0.0000,0,0,999.000,4.3,99.0
2025,1,17,5,0,?9?9?9?9E0?9?9?9?9*9?9?9?9?9*9?9*9*9?9*_?9?9*9?9*9,22.6,20.5,86,98090,0,1413,402,0,0,0,0,0,0,0,180,1.3,8,8,777.7,77777,9,999999999,0,0.0000,0,0,999.000,0.1,99.0
2025,1,17,6,0,?9?9?9?9E0?9?9?9?9*9?9?9?9?9*9?9*9*9?9*_?9?9*9?9*9,22.5,20.5,87,98090,45,1413,401,0,0,0,0,0,0,0,180,1.3,8,8,777.7,77777,9,999999999,0,0.0000,0,0,999.000,0.0,99.0
2025,1,17,7,0,?9?9?9?9E0?9?9?9?9*9?9?9?9?9*9?9*9*9?9*_?9?9*9?9*9,22.3,20.5,87,98090,360,1413,399,34,0,34,4072,0,3732,43,180,1.3,8,8,777.7,77777,9,999999999,0,0.0000,0,0,999.000,0.0,99.0
2025,1,17,8,0,?9?9?9?9E0?9?9?9?9*9?9?9?9?9*9?9*9*9?9*_?9?9*9?9*9,23.9,20.8,79,98090,668,1413,394,277,147,208,33280,13988,22854,140,180,1.3,5,5,777.7,77777,9,999999999,0,0.0000,0,0,999.000,0.0,99.0
2025,1,17,9,0,?9?9?9?9E0?9?9?9?9*9?9?9?9?9*9?9*9*9?9*_?9?9*9?9*9,24.9,21.0,76,98090,944,1413,400,462,198,329,55423,18846,36230,157,180,1.3,5,5,777.7,77777,9,999999999,0,0.0000,0,0,999.000,0.0,99.0
2025,1,17,10,0,?9?9?9?9E0?9?9?9?9*9?9?9?9?9*9?9*9*9?9*_?9?9*9?9*9,26.3,21.3,72,98090,1168,1413,385,776,548,323,93151,52085,35538,124,180,1.3,0,0,777.7,77777,9,999999999,0,0.0000,0,0,999.000,0.0,99.0
2025,1,17,11,0,?9?9?9?9E0?9?9?9?9*9?9?9?9?9*9?9*9*9?9*_?9?9*9?9*9,26.9,21.4,71,98090,1325,1413,415,679,199,492,81493,18920,54158,167,180,2.7,6,6,777.7,77777,9,999999999,0,0.0000,0,0,999.000,0.0,99.0
2025,1,17,12,0,?9?9?9?9E0?9?9?9?9*9?9?9?9?9*9?9*9*9?9*_?9?9*9?9*9,27.5,21.6,69,98090,1404,1413,412,833,356,479,99914,33808,52683,153,180,3.5,4,4,777.7,77777,9,999999999,0,0.0000,0,0,999.000,0.0,99.0
2025,1,17,13,0,?9?9?9?9E0?9?9?9?9*9?9?9?9?9*9?9*9*9?9*_?9?9*9?9*9,27.9,21.6,68,98090,1400,1413,421,745,221,526,89424,21003,57873,169,180,4.0,6,6,777.7,77777,9,999999999,0,0.0000,0,0,999.000,0.0,99.0
2025,1,17,14,0,?9?9?9?9E0?9?9?9?9*9?9?9?9?9*9?9*9*9?9*_?9?9*9?9*9,28.2,21.7,67,98090,1313,1413,419,807,431,407,96899,40988,44718,139,180,4.8,5,5,777.7,77777,9,999999999,0,0.0000,0,0,999.000,0.0,99.0
2025,1,17,15,0,?9?9?9?9E0?9?9?9?9*9?9?9?9?9*9?9*9*9?9*_?9?9*9?9*9,28.2,21.7,71,98090,1149,1413,427,561,193,405,67369,18322,44504,158,180,4.8,7,7,777.7,77777,9,999999999,0,0.0000,0,0,999.000,0.1,99.0
2025,1,17,16,0,?9?9?9?9E0?9?9?9?9*9?9?9?9?9*9?9*9*9?9*_?9?9*9?9*9,27.9,21.6,72,98090,919,1413,433,441,187,319,52868,17769,35084,156,180,4.9,8,8,777.7,77777,9,999999999,0,0.0000,0,0,999.000,0.2,99.0
2025,1,17,17,0,?9?9?9?9E0?9?9?9?9*9?9?9?9?9*9?9*9*9?9*_?9?9*9?9*9,27.7,21.6,69,98090,639,1413,419,384,485,165,46136,46050,18201,117,180,4.2,6,6,777.7,77777,9,999999999,0,0.0000,0,0,999.000,0.0,99.0
2025,1,17,18,0,?9?9?9?9E0?9?9?9?9*9?9?9?9?9*9?9*9*9?9*_?9?9*9?9*9,27.2,21.5,70,98090,328,1413,413,255,412,160,30599,39162,17561,220,180,3.0,5,5,777.7,77777,9,999999999,0,0.0000,0,0,999.000,0.0,99.0
2025,1,17,19,0,?9?9?9?9E0?9?9?9?9*9?9?9?9?9*9?9*9*9?9*_?9?9*9?9*9,26.6,21.4,71,98090,16,1413,387,87,0,87,10487,0,9613,7436,180,2.6,0,0,777.7,77777,9,999999999,0,0.0000,0,0,999.000,0.0,99.0
2025,1,17,20,0,?9?9?9?9E0?9?9?9?9*9?9?9?9?9*9?9*9*9?9*_?9?9*9?9*9,26.1,21.3,73,98090,0,1413,391,0,0,0,0,0,0,0,180,2.0,1,1,777.7,77777,9,999999999,0,0.0000,0,0,999.000,0.0,99.0
2025,1,17,21,0,?9?9?9?9E0?9?9?9?9*9?9?9?9?9*9?9*9*9?9*_?9?9*9?9*9,25.5,21.1,74,98090,0,1413,388,0,0,0,0,0,0,0,180,1.3,1,1,777.7,77777,9,999999999,0,0.0000,0,0,999.000,0.0,99.0
2025,1,17,22,0,?9?9?9?9E0?9?9?9?9*9?9?9?9?9*9?9*9*9?9*_?9?9*9?9*9,25.0,21.0,76,98090,0,1413,390,0,0,0,0,0,0,0,180,1.3,2,2,777.7,77777,9,999999999,0,0.0000,0,0,999.000,0.0,99.0
2025,1,17,23,0,?9?9?9?9E0?9?9?9?9*9?9?9?9?9*9?9*9*9?9*_?9?9*9?9*9,24.4,20.9,77,98090,0,1413,391,0,0,0,0,0,0,0,180,1.3,3,3,777.7,77777,9,999999999,0,0.0000,0,0,999.000,0.0,99.0
2025,1,17,24,0,?9?9?9?9E0?9?9?9?9*9?9?9?9?9*9?9*9*9?9*_?9?9*9?9*9,23.8,20.9,80,98090,0,1413,388,0,0,0,0,0,0,0,180,1.3,3,3,777.7,77777,9,999999999,0,0.0000,0,0,999.000,0.0,99.0
2025,1,18,1,0,?9?9?9?9E0?9?9?9?9*9?9?9?9?9*9?9*9*9?9*_?9?9*9?9*9,23.5,20.8,81,98090,0,1413,389,0,0,0,0,0,0,0,180,1.3,4,4,777.7,77777,9,999999999,0,0.0000,0,0,999.000,0.0,99.0
2025,1,18,2,0,?9?9?9?9E0?9?9?9?9*9?9?9?9?9*9?9*9*9?9*_?9?9*9?9*9,23.3,20.7,82,98090,0,1413,391,0,0,0,0,0,0,0,180,1.3,5,5,777.7,77777,9,999999999,0,0.0000,0,0,999.000,0.0,99.0
2025,1,18,3,0,?9?9?9?9E0?9?9?9?9*9?9?9?9?9*9?9*9*9?9*_?9?9*9?9*9,23.0,20.6,83,98090,0,1413,389,0,0,0,0,0,0,0,180,1.3,5,5,777.7,77777,9,999999999,0,0.0000,0,0,999.000,0.0,99.0
2025,1,18,4,0,?9?9?9?9E0?9?9?9?9*9?9?9?9?9*9?9*9*9?9*_?9?9*9?9*9,22.7,20.5,83,98090,0,1412,391,0,0,0,0,0,0,0,180,1.3,6,6,777.7,77777,9,999999999,0,0.0000,0,0,999.000,0.0,99.0
2025,1,18,5,0,?9?9?9?9E0?9?9?9?9*9?9?9?9?9*9?9*9*9?9*_?9?9*9?9*9,22.5,20.4,88,98090,0,1412,394,0,0,0,0,0,0,0,180,1.3,7,7,777.7,77777,9,999999999,0,0.0000,0,0,999.000,0.0,99.0
2025,1,18,6,0,?9?9?9?9E0?9?9?9?9*9?9?9?9?9*9?9*9*9?9*_?9?9*9?9*9,22.3,20.3,85,98090,42,1412,393,0,0,0,0,0,0,0,180,1.3,7,7,777.7,77777,9,999999999,0,0.0000,0,0,999.000,0.0,99.0
2025,1,18,7,0,?9?9?9?9E0?9?9?9?9*9?9?9?9?9*9?9*9*9?9*_?9?9*9?9*9,22.1,20.3,89,98090,357,1412,398,62,0,62,7481,0,6857,79,180,1.3,8,8,777.7,77777,9,999999999,0,0.0000,0,0,999.000,0.1,99.0
2025,1,18,8,0,?9?9?9?9E0?9?9?9?9*9?9?9?9?9*9?9*9*9?9*_?9?9*9?9*9,23.7,20.9,81,98090,665,1412,397,261,117,206,31363,11131,22685,140,180,1.4,6,6,777.7,77777,9,999999999,0,0.0000,0,0,999.000,0.0,99.0
2025,1,18,9,0,?9?9?9?9E0?9?9?9?9*9?9?9?9?9*9?9*9*9?9*_?9?9*9?9*9,24.8,21.3,78,98090,942,1412,397,477,190,350,57215,18009,38550,167,180,1.9,4,4,777.7,77777,9,999999999,0,0.0000,0,0,999.000,0.0,99.0
2025,1,18,10,0,?9?9?9?9E0?9?9?9?9*9?9?9?9?9*9?9*9*9?9*_?9?9*9?9*9,25.8,21.6,76,98090,1166,1412,402,637,294,394,76446,27973,43335,152,180,2.0,4,4,777.7,77777,9,999999999,0,0.0000,0,0,999.000,0.0,99.0
2025,1,18,11,0,?9?9?9?9E0?9?9?9?9*9?9?9?9?9*9?9*9*9?9*_?9?9*9?9*9,26.7,22.0,74,98090,1324,1412,404,800,407,419,96024,38641,46090,142,180,3.5,3,3,777.7,77777,9,999999999,0,0.0000,0,0,999.000,0.0,99.0
2025,1,18,12,0,?9?9?9?9E0?9?9?9?9*9?9?9?9?9*9?9*9*9?9*_?9?9*9?9*9,27.4,22.2,72,98090,1403,1412,412,861,431,432,103327,40975,47573,139,180,4.1,4,4,777.7,77777,9,999999999,0,0.0000,0,0,999.000,0.0,99.0
2025,1,18,13,0,?9?9?9?9E0?9?9?9?9*9?9?9?9?9*9?9*9*9?9*_?9?9*9?9*9,28.0,22.4,71,98090,1400,1412,408,931,543,392,111671,51606,43143,126,180,4.9,2,2,777.7,77777,9,999999999,0,0.0000,0,0,999.000,0.0,99.0
2025,1,18,14,0,?9?9?9?9E0?9?9?9?9*9?9?9?9?9*9?9*9*9?9*_?9?9*9?9*9,28.4,22.5,70,98090,1313,1412,414,867,571,337,104063,54204,37043,115,180,5.2,3,3,777.7,77777,9,999999999,0,0.0000,0,0,999.000,0.0,99.0
2025,1,18,15,0,?9?9?9?9E0?9?9?9?9*9?9?9?9?9*9?9*9*9?9*_?9?9*9?9*9,28.6,22.6,70,98090,1149,1412,416,806,665,265,96664,63128,29140,104,180,4.5,3,3,777.7,77777,9,999999999,0,0.0000,0,0,999.000,0.0,99.0
2025,1,18,16,0,?9?9?9?9E0?9?9?9?9*9?9?9?9?9*9?9*9*9?9*_?9?9*9?9*9,28.6,22.6,69,98090,919,1412,416,673,882,99,80743,83775,10895,48,180,4.1,3,3,777.7,77777,9,999999999,0,0.0000,0,0,999.000,0.0,99.0
2025,1,18,17,0,?9?9?9?9E0?9?9?9?9*9?9?9?9?9*9?9*9*9?9*_?9?9*9?9*9,28.4,22.5,70,98090,639,1412,414,480,776,130,57649,73696,14263,91,180,3.4,3,3,777.7,77777,9,999999999,0,0.0000,0,0,999.000,0.0,99.0
2025,1,18,18,0,?9?9?9?9E0?9?9?9?9*9?9?9?9?9*9?9*9*9?9*_?9?9*9?9*9,27.9,22.4,71,98090,328,1412,418,256,450,152,30709,42727,16701,209,180,2.5,5,5,777.7,77777,9,999999999,0,0.0000,0,0,999.000,0.0,99.0
2025,1,18,19,0,?9?9?9?9E0?9?9?9?9*9?9?9?9?9*9?9*9*9?9*_?9?9*9?9*9,27.1,22.1,77,98090,16,1412,429,44,0,44,5288,0,4848,3955,180,1.8,8,8,777.7,77777,9,999999999,0,0.0000,0,0,999.000,0.9,99.0
2025,1,18,20,0,?9?9?9?9E0?9?9?9?9*9?9?9?9?9*9?9*9*9?9*_?9?9*9?9*9,26.5,21.9,78,98090,0,1412,425,0,0,0,0,0,0,0,180,1.3,8,8,777.7,77777,9,999999999,0,0.0000,0,0,999.000,0.0,99.0
2025,1,18,21,0,?9?9?9?9E0?9?9?9?9*9?9?9?9?9*9?9*9*9?9*_?9?9*9?9*9,25.9,21.7,76,98090,0,1412,421,0,0,0,0,0,0,0,180,1.3,8,8,777.7,77777,9,999999999,0,0.0000,0,0,999.000,0.0,99.0
2025,1,18,22,0,?9?9?9?9E0?9?9?9?9*9?9?9?9?9*9?9*9*9?9*_?9?9*9?9*9,25.2,21.4,81,98090,0,1412,417,0,0,0,0,0,0,0,180,1.3,8,8,777.7,77777,9,999999999,0,0.0000,0,0,999.000,0.0,99.0
2025,1,18,23,0,?9?9?9?9E0?9?9?9?9*9?9?9?9?9*9?9*9*9?9*_?9?9*9?9*9,24.6,21.2,83,98090,0,1412,413,0,0,0,0,0,0,0,180,1.3,8,8,777.7,77777,9,999999999,0,0.0000,0,0,999.000,0.0,99.0
2025,1,18,24,0,?9?9?9?9E0?9?9?9?9*9?9?9?9?9*9?9*9*9?9*_?9?9*9?9*9,23.9,19.6,76,98090,0,1412,408,0,0,0,0,0,0,0,180,1.2,8,8,777.7,77777,9,999999999,0,0.0000,0,0,999.000,0.0,99.0
2025,1,19,1,0,?9?9?9?9E0?9?9?9?9*9?9?9?9?9*9?9*9*9?9*_?9?9*9?9*9,23.6,19.6,78,98090,0,1412,406,0,0,0,0,0,0,0,180,1.2,8,8,777.7,77777,9,999999999,0,0.0000,0,0,999.000,0.0,99.0
2025,1,19,2,0,?9?9?9?9E0?9?9?9?9*9?9?9?9?9*9?9*9*9?9*_?9?9*9?9*9,23.3,19.6,79,98090,0,1412,398,0,0,0,0,0,0,0,180,1.2,7,7,777.7,77777,9,999999999,0,0.0000,0,0,999.000,0.0,99.0
2025,1,19,3,0,?9?9?9?9E0?9?9?9?9*9?9?9?9?9*9?9*9*9?9*_?9?9*9?9*9,23.0,19.6,81,98090,0,1412,396,0,0,0,0,0,0,0,180,1.2,7,7,777.7,77777,9,999999999,0,0.0000,0,0,999.000,0.0,99.0
2025,1,19,4,0,?9?9?9?9E0?9?9?9?9*9?9?9?9?9*9?9*9*9?9*_?9?9*9?9*9,22.7,19.6,82,98090,0,1412,394,0,0,0,0,0,0,0,180,1.2,7,7,777.7,77777,9,999999999,0,0.0000,0,0,999.000,0.0,99.0
2025,1,19,5,0,?9?9?9?9E0?9?9?9?9*9?9?9?9?9*9?9*9*9?9*_?9?9*9?9*9,22.4,19.6,84,98090,0,1412,393,0,0,0,0,0,0,0,180,1.2,7,7,777.7,77777,9,999999999,0,0.0000,0,0,999.000,0.0,99.0
2025,1,19,6,0,?9?9?9?9E0?9?9?9?9*9?9?9?9?9*9?9*9*9?9*_?9?9*9?9*9,22.2,19.6,85,98090,38,1412,392,0,0,0,0,0,0,0,180,1.2,7,7,777.7,77777,9,999999999,0,0.0000,0,0,999.000,0.0,99.0
2025,1,19,7,0,?9?9?9?9E0?9?9?9?9*9?9?9?9?9*9?9*9*9?9*_?9?9*9?9*9,22.0,19.6,86,98090,353,1412,391,72,0,72,8640,0,7920,92,180,1.2,7,7,777.7,77777,9,999999999,0,0.0000,0,0,999.000,0.0,99.0
2025,1,19,8,0,?9?9?9?9E0?9?9?9?9*9?9?9?9?9*9?9*9*9?9*_?9?9*9?9*9,23.8,19.6,77,98090,663,1412,370,375,389,192,44956,36994,21132,130,180,1.2,0,0,777.7,77777,9,999999999,0,0.0000,0,0,999.000,0.0,99.0
2025,1,19,9,0,?9?9?9?9E0?9?9?9?9*9?9?9?9?9*9?9*9*9?9*_?9?9*9?9*9,25.1,19.5,71,98090,939,1412,377,695,859,124,83351,81558,13607,59,180,1.5,0,0,777.7,77777,9,999999999,0,0.0000,0,0,999.000,0.0,99.0
2025,1,19,10,0,?9?9?9?9E0?9?9?9?9*9?9?9?9?9*9?9*9*9?9*_?9?9*9?9*9,26.4,19.5,66,98090,1165,1412,383,975,816,302,116996,77548,33207,117,180,2.2,0,0,777.7,77777,9,999999999,0,0.0000,0,0,999.000,0.0,99.0
2025,1,19,11,0,?9?9?9?9E0?9?9?9?9*9?9?9?9?9*9?9*9*9?9*_?9?9*9?9*9,27.5,19.5,61,98090,1323,1412,389,1189,855,388,142639,81194,42699,132,180,2.6,0,0,777.7,77777,9,999999999,0,0.0000,0,0,999.000,0.0,99.0
2025,1,19,12,0,?9?9?9?9E0?9?9?9?9*9?9?9?9?9*9?9*9*9?9*_?9?9*9?9*9,28.4,19.5,58,98090,1403,1412,393,1314,977,344,157729,92826,37808,110,180,4.0,0,0,777.7,77777,9,999999999,0,0.0000,0,0,999.000,0.0,99.0
2025,1,19,13,0,?9?9?9?9E0?9?9?9?9*9?9?9?9?9*9?9*9*9?9*_?9?9*9?9*9,29.0,19.4,56,98090,1400,1412,397,1343,955,396,161189,90742,43615,127,180,4.3,0,0,777.7,77777,9,999999999,0,0.0000,0,0,999.000,0.0,99.0
2025,1,19,14,0,?9?9?9?9E0?9?9?9?9*9?9?9?9?9*9?9*9*9?9*_?9?9*9?9*9,29.5,19.4,54,98090,1313,1412,399,1275,933,408,153047,88631,44855,140,180,4.3,0,0,777.7,77777,9,999999999,0,0.0000,0,0,999.000,0.0,99.0
2025,1,19,15,0,?9?9?9?9E0?9?9?9?9*9?9?9?9?9*9?9*9*9?9*_?9?9*9?9*9,29.7,19.4,54,98090,1150,1412,400,1114,966,328,133652,91733,36056,128,180,4.9,0,0,777.7,77777,9,999999999,0,0.0000,0,0,999.000,0.0,99.0
2025,1,19,16,0,?9?9?9?9E0?9?9?9?9*9?9?9?9?9*9?9*9*9?9*_?9?9*9?9*9,29.6,19.4,54,98090,920,1412,400,870,955,249,104453,90721,27354,122,180,4.8,0,0,777.7,77777,9,999999999,0,0.0000,0,0,999.000,0.0,99.0
2025,1,19,17,0,?9?9?9?9E0?9?9?9?9*9?9?9?9?9*9?9*9*9?9*_?9?9*9?9*9,29.2,19.4,55,98090,640,1412,398,572,916,158,68657,87064,17328,111,180,3.8,0,0,777.7,77777,9,999999999,0,0.0000,0,0,999.000,0.0,99.0
2025,1,19,18,0,?9?9?9?9E0?9?9?9?9*9?9?9?9?9*9?9*9*9?9*_?9?9*9?9*9,28.4,19.5,58,98090,328,1412,417,257,675,101,30812,64090,11069,138,180,3.6,5,5,777.7,77777,9,999999999,0,0.0000,0,0,999.000,0.0,99.0
2025,1,19,19,0,?9?9?9?9E0?9?9?9?9*9?9?9?9?9*9?9*9*9?9*_?9?9*9?9*9,27.6,19.5,61,98090,16,1412,428,54,0,54,6528,0,5984,5299,180,2.4,8,8,777.7,77777,9,999999999,0,0.0000,0,0,999.000,0.0,99.0
2025,1,19,20,0,?9?9?9?9E0?9?9?9?9*9?9?9?9?9*9?9*9*9?9*_?9?9*9?9*9,26.7,19.5,64,98090,0,1412,423,0,0,0,0,0,0,0,180,2.0,8,8,777.7,77777,9,999999999,0,0.0000,0,0,999.000,0.0,99.0
2025,1,19,21,0,?9?9?9?9E0?9?9?9?9*9?9?9?9?9*9?9*9*9?9*_?9?9*9?9*9,25.8,19.5,68,98090,0,1412,418,0,0,0,0,0,0,0,180,1.2,8,8,777.7,77777,9,999999999,0,0.0000,0,0,999.000,0.0,99.0
2025,1,19,22,0,?9?9?9?9E0?9?9?9?9*9?9?9?9?9*9?9*9*9?9*_?9?9*9?9*9,24.9,19.6,72,98090,0,1412,413,0,0,0,0,0,0,0,180,1.2,8,8,777.7,77777,9,999999999,0,0.0000,0,0,999.000,0.0,99.0
2025,1,19,23,0,?9?9?9?9E0?9?9?9?9*9?9?9?9?9*9?9*9*9?9*_?9?9*9?9*9,24.0,19.6,76,98090,0,1412,408,0,0,0,0,0,0,0,180,1.2,8,8,777.7,77777,9,999999999,0,0.0000,0,0,999.000,0.0,99.0
2025,1,19,24,0,?9?9?9?9E0?9?9?9?9*9?9?9?9?9*9?9*9*9?9*_?9?9*9?9*9,23.1,20.3,85,98090,0,1412,404,0,0,0,0,0,0,0,180,1.5,8,8,777.7,77777,9,999999999,0,0.0000,0,0,999.000,0.2,99.0
2025,1,20,1,0,?9?9?9?9E0?9?9?9?9*9?9?9?9?9*9?9*9*9?9*_?9?9*9?9*9,22.7,20.3,96,98090,0,1412,401,0,0,0,0,0,0,0,180,1.5,8,8,777.7,77777,9,999999999,18,0.0000,0,0,999.000,18.5,99.0
2025,1,20,2,0,?9?9?9?9E0?9?9?9?9*9?9?9?9?9*9?9*9*9?9*_?9?9*9?9*9,22.2,20.3,89,98090,0,1412,399,0,0,0,0,0,0,0,180,1.5,8,8,777.7,77777,9,999999999,0,0.0000,0,0,999.000,0.5,99.0
2025,1,20,3,0,?9?9?9?9E0?9?9?9?9*9?9?9?9?9*9?9*9*9?9*_?9?9*9?9*9,21.8,20.2,91,98090,0,1412,397,0,0,0,0,0,0,0,180,1.5,8,8,777.7,77777,9,999999999,0,0.0000,0,0,999.000,0.1,99.0
2025,1,20,4,0,?9?9?9?9E0?9?9?9?9*9?9?9?9?9*9?9*9*9?9*_?9?9*9?9*9,21.3,20.2,94,98090,0,1412,394,0,0,0,0,0,0,0,180,1.5,8,8,777.7,77777,9,999999999,0,0.0000,0,0,999.000,0.0,99.0
2025,1,20,5,0,?9?9?9?9E0?9?9?9?9*9?9?9?9?9*9?9*9*9?9*_?9?9*9?9*9,20.9,20.2,96,98090,0,1412,392,0,0,0,0,0,0,0,180,1.5,8,8,777.7,77777,9,999999999,0,0.0000,0,0,999.000,0.0,99.0
2025,1,20,6,0,?9?9?9?9E0?9?9?9?9*9?9?9?9?9*9?9*9*9?9*_?9?9*9?9*9,20.6,20.2,97,98090,35,1412,391,0,0,0,0,0,0,0,180,1.5,8,8,777.7,77777,9,999999999,0,0.0000,0,0,999.000,0.1,99.0
2025,1,20,7,0,?9?9?9?9E0?9?9?9?9*9?9?9?9?9*9?9*9*9?9*_?9?9*9?9*9,20.4,20.2,98,98090,350,1412,389,42,0,42,5070,0,4648,54,180,1.5,8,8,777.7,77777,9,999999999,0,0.0000,0,0,999.000,0.0,99.0
2025,1,20,8,0,?9?9?9?9E0?9?9?9?9*9?9?9?9?9*9?9*9*9?9*_?9?9*9?9*9,22.2,20.3,85,98090,660,1412,392,230,74,196,27630,7048,21518,133,180,1.5,7,7,777.7,77777,9,999999999,0,0.0000,0,0,999.000,0.0,99.0
2025,1,20,9,0,?9?9?9?9E0?9?9?9?9*9?9?9?9?9*9?9*9*9?9*_?9?9*9?9*9,23.5,20.3,79,98090,937,1412,392,445,177,327,53406,16837,36019,157,180,1.5,5,5,777.7,77777,9,999999999,0,0.0000,0,0,999.000,0.0,99.0
2025,1,20,10,0,?9?9?9?9E0?9?9?9?9*9?9?9?9?9*9?9*9*9?9*_?9?9*9?9*9,24.9,20.4,74,98090,1163,1412,396,650,302,401,78004,28682,44151,155,180,1.8,4,4,777.7,77777,9,999999999,0,0.0000,0,0,999.000,0.0,99.0
2025,1,20,11,0,?9?9?9?9E0?9?9?9?9*9?9?9?9?9*9?9*9*9?9*_?9?9*9?9*9,26.1,20.4,69,98090,1322,1412,400,813,441,400,97519,41891,43990,136,180,2.7,3,3,777.7,77777,9,999999999,0,0.0000,0,0,999.000,0.0,99.0
2025,1,20,12,0,?9?9?9?9E0?9?9?9?9*9?9?9?9?9*9?9*9*9?9*_?9?9*9?9*9,27.2,20.5,65,98090,1402,1412,396,934,526,411,112027,49967,45228,132,180,3.3,1,1,777.7,77777,9,999999999,0,0.0000,0,0,999.000,0.0,99.0
2025,1,20,13,0,?9?9?9?9E0?9?9?9?9*9?9?9?9?9*9?9*9*9?9*_?9?9*9?9*9,28.1,20.5,63,98090,1400,1412,393,994,584,415,119270,55522,45606,133,180,3.8,0,0,777.7,77777,9,999999999,0,0.0000,0,0,999.000,0.0,99.0
2025,1,20,14,0,?9?9?9?9E0?9?9?9?9*9?9?9?9?9*9?9*9*9?9*_?9?9*9?9*9,28.7,20.5,61,98090,1313,1412,397,970,774,250,116405,73488,27550,86,180,3.8,0,0,777.7,77777,9,999999999,0,0.0000,0,0,999.000,0.0,99.0
2025,1,20,15,0,?9?9?9?9E0?9?9?9?9*9?9?9?9?9*9?9*9*9?9*_?9?9*9?9*9,29.0,20.5,60,98090,1150,1412,406,837,820,170,100498,77904,18667,66,180,4.7,1,1,777.7,77777,9,999999999,0,0.0000,0,0,999.000,0.0,99.0
2025,1,20,16,0,?9?9?9?9E0?9?9?9?9*9?9?9?9?9*9?9*9*9?9*_?9?9*9?9*9,29.1,20.6,60,98090,920,1412,412,691,933,83,82906,88631,9144,41,180,4.5,2,2,777.7,77777,9,999999999,0,0.0000,0,0,999.000,0.0,99.0
2025,1,20,17,0,?9?9?9?9E0?9?9?9?9*9?9?9?9?9*9?9*9*9?9*_?9?9*9?9*9,28.7,20.5,61,98090,640,1412,414,483,777,131,57955,73857,14420,92,180,4.5,3,3,777.7,77777,9,999999999,0,0.0000,0,0,999.000,0.0,99.0
2025,1,20,18,0,?9?9?9?9E0?9?9?9?9*9?9?9?9?9*9?9*9*9?9*_?9?9*9?9*9,28.0,20.5,63,98090,328,1412,416,256,450,152,30713,42714,16708,209,180,3.3,5,5,777.7,77777,9,999999999,0,0.0000,0,0,999.000,0.0,99.0
2025,1,20,19,0,?9?9?9?9E0?9?9?9?9*9?9?9?9?9*9?9*9*9?9*_?9?9*9?9*9,27.0,20.5,75,98090,15,1412,426,44,0,44,5256,0,4818,4802,180,2.4,8,8,777.7,77777,9,999999999,1,0.0000,0,0,999.000,1.3,99.0
2025,1,20,20,0,?9?9?9?9E0?9?9?9?9*9?9?9?9?9*9?9*9*9?9*_?9?9*9?9*9,26.4,20.5,73,98090,0,1412,422,0,0,0,0,0,0,0,180,1.7,8,8,777.7,77777,9,999999999,0,0.0000,0,0,999.000,0.1,99.0
2025,1,20,21,0,?9?9?9?9E0?9?9?9?9*9?9?9?9?9*9?9*9*9?9*_?9?9*9?9*9,25.8,20.4,75,98090,0,1412,419,0,0,0,0,0,0,0,180,1.5,8,8,777.7,77777,9,999999999,0,0.0000,0,0,999.000,0.2,99.0
2025,1,20,22,0,?9?9?9?9E0?9?9?9?9*9?9?9?9?9*9?9*9*9?9*_?9?9*9?9*9,25.2,20.4,77,98090,0,1412,415,0,0,0,0,0,0,0,180,1.5,8,8,777.7,77777,9,999999999,0,0.0000,0,0,999.000,0.3,99.0
2025,1,20,23,0,?9?9?9?9E0?9?9?9?9*9?9?9?9?9*9?9*9*9?9*_?9?9*9?9*9,24.6,20.4,79,98090,0,1412,412,0,0,0,0,0,0,0,180,1.5,8,8,777.7,77777,9,999999999,0,0.0000,0,0,999.000,0.7,99.0
2025,1,20,24,0,?9?9?9?9E0?9?9?9?9*9?9?9?9?9*9?9*9*9?9*_?9?9*9?9*9,24.0,21.2,85,98090,0,1412,410,0,0,0,0,0,0,0,180,1.4,8,8,777.7,77777,9,999999999,0,0.0000,0,0,999.000,0.1,99.0
2025,1,21,1,0,?9?9?9?9E0?9?9?9?9*9?9?9?9?9*9?9*9*9?9*_?9?9*9?9*9,23.6,21.2,87,98090,0,1412,408,0,0,0,0,0,0,0,180,1.4,8,8,777.7,77777,9,999999999,0,0.0000,0,0,999.000,0.1,99.0
2025,1,21,2,0,?9?9?9?9E0?9?9?9?9*9?9?9?9?9*9?9*9*9?9*_?9?9*9?9*9,23.3,21.2,89,98090,0,1412,406,0,0,0,0,0,0,0,180,1.4,8,8,777.7,77777,9,999999999,0,0.0000,0,0,999.000,0.1,99.0
2025,1,21,3,0,?9?9?9?9E0?9?9?9?9*9?9?9?9?9*9?9*9*9?9*_?9?9*9?9*9,23.0,21.3,90,98090,0,1412,405,0,0,0,0,0,0,0,180,1.4,8,8,777.7,77777,9,999999999,0,0.0000,0,0,999.000,0.7,99.0
2025,1,21,4,0,?9?9?9?9E0?9?9?9?9*9?9?9?9?9*9?9*9*9?9*_?9?9*9?9*9,22.7,21.3,92,98090,0,1412,403,0,0,0,0,0,0,0,180,1.4,8,8,777.7,77777,9,999999999,0,0.0000,0,0,999.000,0.4,99.0
2025,1,21,5,0,?9?9?9?9E0?9?9?9?9*9?9?9?9?9*9?9*9*9?9*_?9?9*9?9*9,22.5,21.3,93,98090,0,1412,402,0,0,0,0,0,0,0,180,1.4,8,8,777.7,77777,9,999999999,0,0.0000,0,0,999.000,0.3,99.0
2025,1,21,6,0,?9?9?9?9E0?9?9?9?9*9?9?9?9?9*9?9*9*9?9*_?9?9*9?9*9,22.2,21.4,94,98090,32,1412,401,0,0,0,0,0,0,0,180,1.8,8,8,777.7,77777,9,999999999,0,0.0000,0,0,999.000,0.0,99.0
2025,1,21,7,0,?9?9?9?9E0?9?9?9?9*9?9?9?9?9*9?9*9*9?9*_?9?9*9?9*9,22.0,21.4,95,98090,347,1412,399,20,0,20,2376,0,2178,26,180,2.0,8,8,777.7,77777,9,999999999,0,0.0000,0,0,999.000,0.0,99.0
2025,1,21,8,0,?9?9?9?9E0?9?9?9?9*9?9?9?9?9*9?9*9*9?9*_?9?9*9?9*9,23.3,21.2,84,98090,657,1412,406,109,0,109,13082,0,11992,75,180,2.8,8,8,777.7,77777,9,999999999,0,0.0000,0,0,999.000,0.0,99.0
2025,1,21,9,0,?9?9?9?9E0?9?9?9?9*9?9?9?9?9*9?9*9*9?9*_?9?9*9?9*9,24.2,21.1,80,98090,935,1412,411,204,3,202,24514,310,22233,97,180,2.7,8,8,777.7,77777,9,999999999,0,0.0000,0,0,999.000,0.0,99.0
2025,1,21,10,0,?9?9?9?9E0?9?9?9?9*9?9?9?9?9*9?9*9*9?9*_?9?9*9?9*9,25.1,21.0,76,98090,1161,1412,416,288,12,278,34579,1183,30570,108,180,2.9,8,8,777.7,77777,9,999999999,0,0.0000,0,0,999.000,0.0,99.0
2025,1,21,11,0,?9?9?9?9E0?9?9?9?9*9?9?9?9?9*9?9*9*9?9*_?9?9*9?9*9,25.8,21.0,77,98090,1321,1412,420,353,22,333,42346,2058,36588,113,180,2.8,8,8,777.7,77777,9,999999999,0,0.0000,0,0,999.000,0.1,99.0
2025,1,21,12,0,?9?9?9?9E0?9?9?9?9*9?9?9?9?9*9?9*9*9?9*_?9?9*9?9*9,26.5,20.9,74,98090,1402,1412,423,393,24,369,47208,2309,40619,118,180,2.4,8,8,777.7,77777,9,999999999,0,0.0000,0,0,999.000,0.0,99.0
2025,1,21,13,0,?9?9?9?9E0?9?9?9?9*9?9?9?9?9*9?9*9*9?9*_?9?9*9?9*9,27.0,20.8,68,98090,1399,1412,426,407,26,381,48804,2478,41893,122,180,2.2,8,8,777.7,77777,9,999999999,0,0.0000,0,0,999.000,0.0,99.0
2025,1,21,14,0,?9?9?9?9E0?9?9?9?9*9?9?9?9?9*9?9*9*9?9*_?9?9*9?9*9,27.3,20.8,66,98090,1314,1412,428,392,28,366,47017,2634,40262,125,180,2.7,8,8,777.7,77777,9,999999999,0,0.0000,0,0,999.000,0.0,99.0
2025,1,21,15,0,?9?9?9?9E0?9?9?9?9*9?9?9?9?9*9?9*9*9?9*_?9?9*9?9*9,27.5,20.8,70,98090,1150,1412,429,350,30,325,41978,2838,35803,127,180,3.2,8,8,777.7,77777,9,999999999,0,0.0000,0,0,999.000,0.0,99.0
2025,1,21,16,0,?9?9?9?9E0?9?9?9?9*9?9?9?9?9*9?9*9*9?9*_?9?9*9?9*9,27.5,20.8,70,98090,920,1412,429,284,17,273,34058,1585,30024,133,180,3.8,8,8,777.7,77777,9,999999999,0,0.0000,0,0,999.000,0.6,99.0
2025,1,21,17,0,?9?9?9?9E0?9?9?9?9*9?9?9?9?9*9?9*9*9?9*_?9?9*9?9*9,27.3,20.8,71,98090,640,1412,428,199,39,181,23881,3682,19961,128,180,4.2,8,8,777.7,77777,9,999999999,0,0.0000,0,0,999.000,0.2,99.0
2025,1,21,18,0,?9?9?9?9E0?9?9?9?9*9?9?9?9?9*9?9*9*9?9*_?9?9*9?9*9,26.8,20.9,73,98090,328,1412,425,103,58,90,12403,5525,9890,124,180,3.7,8,8,777.7,77777,9,999999999,0,0.0000,0,0,999.000,0.3,99.0
2025,1,21,19,0,?9?9?9?9E0?9?9?9?9*9?9?9?9?9*9?9*9*9?9*_?9?9*9?9*9,26.2,20.9,75,98090,15,1412,422,16,0,16,1900,0,1741,2053,180,2.9,8,8,777.7,77777,9,999999999,0,0.0000,0,0,999.000,0.2,99.0
2025,1,21,20,0,?9?9?9?9E0?9?9?9?9*9?9?9?9?9*9?9*9*9?9*_?9?9*9?9*9,25.7,21.0,82,98090,0,1412,419,0,0,0,0,0,0,0,180,2.2,8,8,777.7,77777,9,999999999,2,0.0000,0,0,999.000,2.3,99.0
2025,1,21,21,0,?9?9?9?9E0?9?9?9?9*9?9?9?9?9*9?9*9*9?9*_?9?9*9?9*9,25.2,21.0,88,98090,0,1412,416,0,0,0,0,0,0,0,180,1.9,8,8,777.7,77777,9,999999999,27,0.0000,0,0,999.000,27.1,99.0
2025,1,21,22,0,?9?9?9?9E0?9?9?9?9*9?9?9?9?9*9?9*9*9?9*_?9?9*9?9*9,24.7,21.1,86,98090,0,1412,414,0,0,0,0,0,0,0,180,1.5,8,8,777.7,77777,9,999999999,1,0.0000,0,0,999.000,1.4,99.0
2025,1,21,23,0,?9?9?9?9E0?9?9?9?9*9?9?9?9?9*9?9*9*9?9*_?9?9*9?9*9,24.2,21.1,84,98090,0,1412,411,0,0,0,0,0,0,0,180,1.4,8,8,777.7,77777,9,999999999,0,0.0000,0,0,999.000,1.0,99.0
2025,1,21,24,0,?9?9?9?9E0?9?9?9?9*9?9?9?9?9*9?9*9*9?9*_?9?9*9?9*9,23.8,20.8,84,98090,0,1412,408,0,0,0,0,0,0,0,180,1.9,8,8,777.7,77777,9,999999999,0,0.0000,0,0,999.000,0.3,99.0
2025,1,22,1,0,?9?9?9?9E0?9?9?9?9*9?9?9?9?9*9?9*9*9?9*_?9?9*9?9*9,23.5,20.8,86,98090,0,1412,407,0,0,0,0,0,0,0,180,1.9,8,8,777.7,77777,9,999999999,0,0.0000,0,0,999.000,0.1,99.0
2025,1,22,2,0,?9?9?9?9E0?9?9?9?9*9?9?9?9?9*9?9*9*9?9*_?9?9*9?9*9,23.3,20.9,87,98090,0,1412,405,0,0,0,0,0,0,0,180,1.9,8,8,777.7,77777,9,999999999,0,0.0000,0,0,999.000,0.2,99.0
2025,1,22,3,0,?9?9?9?9E0?9?9?9?9*9?9?9?9?9*9?9*9*9?9*_?9?9*9?9*9,23.0,20.9,88,98090,0,1412,404,0,0,0,0,0,0,0,180,1.9,8,8,777.7,77777,9,999999999,0,0.0000,0,0,999.000,0.1,99.0
2025,1,22,4,0,?9?9?9?9E0?9?9?9?9*9?9?9?9?9*9?9*9*9?9*_?9?9*9?9*9,22.8,21.0,89,98090,0,1411,403,0,0,0,0,0,0,0,180,1.9,8,8,777.7,77777,9,999999999,0,0.0000,0,0,999.000,0.0,99.0
2025,1,22,5,0,?9?9?9?9E0?9?9?9?9*9?9?9?9?9*9?9*9*9?9*_?9?9*9?9*9,22.6,21.0,86,98090,0,1411,402,0,0,0,0,0,0,0,180,1.9,8,8,777.7,77777,9,999999999,0,0.0000,0,0,999.000,0.0,99.0
2025,1,22,6,0,?9?9?9?9E0?9?9?9?9*9?9?9?9?9*9?9*9*9?9*_?9?9*9?9*9,22.4,21.0,91,98090,29,1411,401,0,0,0,0,0,0,0,180,1.9,8,8,777.7,77777,9,999999999,0,0.0000,0,0,999.000,0.0,99.0
2025,1,22,7,0,?9?9?9?9E0?9?9?9?9*9?9?9?9?9*9?9*9*9?9*_?9?9*9?9*9,22.2,21.0,92,98090,344,1411,400,37,0,37,4446,0,4076,49,180,1.9,8,8,777.7,77777,9,999999999,0,0.0000,0,0,999.000,0.1,99.0
2025,1,22,8,0,?9?9?9?9E0?9?9?9?9*9?9?9?9?9*9?9*9*9?9*_?9?9*9?9*9,23.8,20.8,80,98090,654,1411,402,210,49,187,25202,4658,20604,129,180,1.9,7,7,777.7,77777,9,999999999,0,0.0000,0,0,999.000,0.0,99.0
2025,1,22,9,0,?9?9?9?9E0?9?9?9?9*9?9?9?9?9*9?9*9*9?9*_?9?9*9?9*9,24.9,20.6,74,98090,933,1411,403,395,94,333,47442,8968,36628,160,180,1.9,6,6,777.7,77777,9,999999999,0,0.0000,0,0,999.000,0.0,99.0
2025,1,22,10,0,?9?9?9?9E0?9?9?9?9*9?9?9?9?9*9?9*9*9?9*_?9?9*9?9*9,26.0,20.4,69,98090,1160,1411,409,559,180,410,67039,17138,45149,159,180,1.9,6,6,777.7,77777,9,999999999,0,0.0000,0,0,999.000,0.0,99.0
2025,1,22,11,0,?9?9?9?9E0?9?9?9?9*9?9?9?9?9*9?9*9*9?9*_?9?9*9?9*9,26.9,20.3,65,98090,1319,1411,414,685,127,566,82172,12059,62272,193,180,1.9,6,6,777.7,77777,9,999999999,0,0.0000,0,0,999.000,0.0,99.0
2025,1,22,12,0,?9?9?9?9E0?9?9?9?9*9?9?9?9?9*9?9*9*9?9*_?9?9*9?9*9,27.7,20.2,62,98090,1401,1411,414,764,147,618,91660,13958,67977,198,180,1.9,5,5,777.7,77777,9,999999999,0,0.0000,0,0,999.000,0.0,99.0
2025,1,22,13,0,?9?9?9?9E0?9?9?9?9*9?9?9?9?9*9?9*9*9?9*_?9?9*9?9*9,28.4,20.0,60,98090,1399,1411,418,790,303,489,94793,28818,53816,157,180,2.7,5,5,777.7,77777,9,999999999,0,0.0000,0,0,999.000,0.0,99.0
2025,1,22,14,0,?9?9?9?9E0?9?9?9?9*9?9?9?9?9*9?9*9*9?9*_?9?9*9?9*9,28.8,20.0,58,98090,1314,1411,420,761,353,433,91346,33512,47623,148,180,3.4,5,5,777.7,77777,9,999999999,0,0.0000,0,0,999.000,0.0,99.0
2025,1,22,15,0,?9?9?9?9E0?9?9?9?9*9?9?9?9?9*9?9*9*9?9*_?9?9*9?9*9,29.0,20.0,62,98090,1150,1411,425,680,389,363,81570,36932,39926,142,180,4.4,6,6,777.7,77777,9,999999999,0,0.0000,0,0,999.000,0.0,99.0
2025,1,22,16,0,?9?9?9?9E0?9?9?9?9*9?9?9?9?9*9?9*9*9?9*_?9?9*9?9*9,29.0,19.9,58,98090,920,1411,425,552,456,254,66185,43322,27969,124,180,4.0,6,6,777.7,77777,9,999999999,0,0.0000,0,0,999.000,0.0,99.0
2025,1,22,17,0,?9?9?9?9E0?9?9?9?9*9?9?9?9?9*9?9*9*9?9*_?9?9*9?9*9,28.7,20.0,59,98090,640,1411,423,387,545,140,46403,51790,15384,98,180,4.0,6,6,777.7,77777,9,999999999,0,0.0000,0,0,999.000,0.0,99.0
2025,1,22,18,0,?9?9?9?9E0?9?9?9?9*9?9?9?9?9*9?9*9*9?9*_?9?9*9?9*9,28.1,20.1,65,98090,328,1411,425,201,375,114,24085,35613,12549,157,180,2.7,7,7,777.7,77777,9,999999999,0,0.0000,0,0,999.000,0.1,99.0
2025,1,22,19,0,?9?9?9?9E0?9?9?9?9*9?9?9?9?9*9?9*9*9?9*_?9?9*9?9*9,27.4,20.2,68,98090,14,1411,427,31,0,31,3666,0,3361,5068,180,1.9,8,8,777.7,77777,9,999999999,0,0.0000,0,0,999.000,0.2,99.0
2025,1,22,20,0,?9?9?9?9E0?9?9?9?9*9?9?9?9?9*9?9*9*9?9*_?9?9*9?9*9,26.8,20.3,75,98090,0,1411,425,0,0,0,0,0,0,0,180,1.9,8,8,777.7,77777,9,999999999,1,0.0000,0,0,999.000,1.2,99.0
2025,1,22,21,0,?9?9?9?9E0?9?9?9?9*9?9?9?9?9*9?9*9*9?9*_?9?9*9?9*9,26.3,20.4,81,98090,0,1411,422,0,0,0,0,0,0,0,180,1.9,8,8,777.7,77777,9,999999999,15,0.0000,0,0,999.000,15.5,99.0
2025,1,22,22,0,?9?9?9?9E0?9?9?9?9*9?9?9?9?9*9?9*9*9?9*_?9?9*9?9*9,25.8,20.5,75,98090,0,1411,419,0,0,0,0,0,0,0,180,1.9,8,8,777.7,77777,9,999999999,0,0.0000,0,0,999.000,0.4,99.0
2025,1,22,23,0,?9?9?9?9E0?9?9?9?9*9?9?9?9?9*9?9*9*9?9*_?9?9*9?9*9,25.2,20.6,77,98090,0,1411,416,0,0,0,0,0,0,0,180,1.9,8,8,777.7,77777,9,999999999,0,0.0000,0,0,999.000,0.7,99.0
2025,1,22,24,0,?9?9?9?9E0?9?9?9?9*9?9?9?9?9*9?9*9*9?9*_?9?9*9?9*9,24.7,20.2,75,98090,0,1411,412,0,0,0,0,0,0,0,180,1.5,8,8,777.7,77777,9,999999999,0,0.0000,0,0,999.000,0.0,99.0
2025,1,23,1,0,?9?9?9?9E0?9?9?9?9*9?9?9?9?9*9?9*9*9?9*_?9?9*9?9*9,24.4,20.2,77,98090,0,1411,411,0,0,0,0,0,0,0,180,1.5,8,8,777.7,77777,9,999999999,0,0.0000,0,0,999.000,0.0,99.0
2025,1,23,2,0,?9?9?9?9E0?9?9?9?9*9?9?9?9?9*9?9*9*9?9*_?9?9*9?9*9,24.2,20.3,79,98090,0,1411,410,0,0,0,0,0,0,0,180,1.5,8,8,777.7,77777,9,999999999,0,0.0000,0,0,999.000,0.0,99.0
2025,1,23,3,0,?9?9?9?9E0?9?9?9?9*9?9?9?9?9*9?9*9*9?9*_?9?9*9?9*9,23.9,20.4,80,98090,0,1411,408,0,0,0,0,0,0,0,180,1.5,8,8,777.7,77777,9,999999999,0,0.0000,0,0,999.000,0.0,99.0
2025,1,23,4,0,?9?9?9?9E0?9?9?9?9*9?9?9?9?9*9?9*9*9?9*_?9?9*9?9*9,23.6,20.5,82,98090,0,1411,407,0,0,0,0,0,0,0,180,1.5,8,8,777.7,77777,9,999999999,0,0.0000,0,0,999.000,0.0,99.0
2025,1,23,5,0,?9?9?9?9E0?9?9?9?9*9?9?9?9?9*9?9*9*9?9*_?9?9*9?9*9,23.4,20.6,84,98090,0,1411,406,0,0,0,0,0,0,0,180,1.5,8,8,777.7,77777,9,999999999,0,0.0000,0,0,999.000,0.0,99.0
2025,1,23,6,0,?9?9?9?9E0?9?9?9?9*9?9?9?9?9*9?9*9*9?9*_?9?9*9?9*9,23.2,20.6,85,98090,25,1411,405,0,0,0,0,0,0,0,180,1.5,8,8,777.7,77777,9,999999999,0,0.0000,0,0,999.000,0.0,99.0
2025,1,23,7,0,?9?9?9?9E0?9?9?9?9*9?9?9?9?9*9?9*9*9?9*_?9?9*9?9*9,23.0,20.7,86,98090,341,1411,404,41,0,41,4963,0,4550,55,180,1.5,8,8,777.7,77777,9,999999999,0,0.0000,0,0,999.000,0.0,99.0
2025,1,23,8,0,?9?9?9?9E0?9?9?9?9*9?9?9?9?9*9?9*9*9?9*_?9?9*9?9*9,24.8,20.1,75,98090,652,1411,402,255,116,201,30550,11010,22122,139,180,1.5,6,6,777.7,77777,9,999999999,0,0.0000,0,0,999.000,0.0,99.0
2025,1,23,9,0,?9?9?9?9E0?9?9?9?9*9?9?9?9?9*9?9*9*9?9*_?9?9*9?9*9,26.1,19.7,67,98090,931,1411,402,483,250,318,57956,23786,34968,153,180,1.5,4,4,777.7,77777,9,999999999,0,0.0000,0,0,999.000,0.0,99.0
2025,1,23,10,0,?9?9?9?9E0?9?9?9?9*9?9?9?9?9*9?9*9*9?9*_?9?9*9?9*9,27.4,19.3,61,98090,1158,1411,401,699,399,372,83912,37867,40940,144,180,1.5,2,2,777.7,77777,9,999999999,0,0.0000,0,0,999.000,0.0,99.0
2025,1,23,11,0,?9?9?9?9E0?9?9?9?9*9?9?9?9?9*9?9*9*9?9*_?9?9*9?9*9,28.5,18.9,55,98090,1318,1411,401,841,523,352,100886,49658,38762,120,180,2.0,1,1,777.7,77777,9,999999999,0,0.0000,0,0,999.000,0.0,99.0
2025,1,23,12,0,?9?9?9?9E0?9?9?9?9*9?9?9?9?9*9?9*9*9?9*_?9?9*9?9*9,29.4,18.6,52,98090,1400,1411,411,907,516,395,108847,49042,43419,127,180,2.8,2,2,777.7,77777,9,999999999,0,0.0000,0,0,999.000,0.0,99.0
2025,1,23,13,0,?9?9?9?9E0?9?9?9?9*9?9?9?9?9*9?9*9*9?9*_?9?9*9?9*9,30.0,18.3,49,98090,1399,1411,418,908,523,390,108965,49648,42898,125,180,4.1,3,3,777.7,77777,9,999999999,0,0.0000,0,0,999.000,0.0,99.0
2025,1,23,14,0,?9?9?9?9E0?9?9?9?9*9?9?9?9?9*9?9*9*9?9*_?9?9*9?9*9,30.5,18.2,47,98090,1314,1411,416,904,609,337,108491,57891,37057,115,180,4.8,2,2,777.7,77777,9,999999999,0,0.0000,0,0,999.000,0.0,99.0
2025,1,23,15,0,?9?9?9?9E0?9?9?9?9*9?9?9?9?9*9?9*9*9?9*_?9?9*9?9*9,30.7,18.1,46,98090,1150,1411,412,847,799,196,101628,75893,21533,76,180,5.6,1,1,777.7,77777,9,999999999,0,0.0000,0,0,999.000,0.0,99.0
2025,1,23,16,0,?9?9?9?9E0?9?9?9?9*9?9?9?9?9*9?9*9*9?9*_?9?9*9?9*9,30.7,18.1,47,98090,920,1411,425,624,668,189,74906,63481,20737,92,180,4.9,4,4,777.7,77777,9,999999999,0,0.0000,0,0,999.000,0.0,99.0
2025,1,23,17,0,?9?9?9?9E0?9?9?9?9*9?9?9?9?9*9?9*9*9?9*_?9?9*9?9*9,30.1,18.3,49,98090,640,1411,434,342,328,193,41050,31206,21269,136,180,4.0,7,7,777.7,77777,9,999999999,0,0.0000,0,0,999.000,0.0,99.0
2025,1,23,18,0,?9?9?9?9E0?9?9?9?9*9?9?9?9?9*9?9*9*9?9*_?9?9*9?9*9,29.4,18.5,52,98090,327,1411,430,198,569,67,23788,54086,7351,92,180,2.9,7,7,777.7,77777,9,999999999,0,0.0000,0,0,999.000,0.0,99.0
2025,1,23,19,0,?9?9?9?9E0?9?9?9?9*9?9?9?9?9*9?9*9*9?9*_?9?9*9?9*9,28.6,18.9,55,98090,13,1411,432,36,0,36,4280,0,3924,8747,180,1.7,8,8,777.7,77777,9,999999999,0,0.0000,0,0,999.000,0.0,99.0
2025,1,23,20,0,?9?9?9?9E0?9?9?9?9*9?9?9?9?9*9?9*9*9?9*_?9?9*9?9*9,27.9,19.1,58,98090,0,1411,429,0,0,0,0,0,0,0,180,1.5,8,8,777.7,77777,9,999999999,0,0.0000,0,0,999.000,0.0,99.0
2025,1,23,21,0,?9?9?9?9E0?9?9?9?9*9?9?9?9?9*9?9*9*9?9*_?9?9*9?9*9,27.3,19.3,61,98090,0,1411,426,0,0,0,0,0,0,0,180,1.5,8,8,777.7,77777,9,999999999,0,0.0000,0,0,999.000,0.0,99.0
2025,1,23,22,0,?9?9?9?9E0?9?9?9?9*9?9?9?9?9*9?9*9*9?9*_?9?9*9?9*9,26.7,19.5,64,98090,0,1411,423,0,0,0,0,0,0,0,180,1.5,8,8,777.7,77777,9,999999999,0,0.0000,0,0,999.000,0.0,99.0
2025,1,23,23,0,?9?9?9?9E0?9?9?9?9*9?9?9?9?9*9?9*9*9?9*_?9?9*9?9*9,26.1,19.7,67,98090,0,1411,420,0,0,0,0,0,0,0,180,1.5,8,8,777.7,77777,9,999999999,0,0.0000,0,0,999.000,0.0,99.0
2025,1,23,24,0,?9?9?9?9E0?9?9?9?9*9?9?9?9?9*9?9*9*9?9*_?9?9*9?9*9,25.5,21.6,76,98090,0,1411,419,0,0,0,0,0,0,0,180,1.4,8,8,777.7,77777,9,999999999,0,0.0000,0,0,999.000,0.0,99.0
2025,1,24,1,0,?9?9?9?9E0?9?9?9?9*9?9?9?9?9*9?9*9*9?9*_?9?9*9?9*9,25.2,21.6,81,98090,0,1411,417,0,0,0,0,0,0,0,180,1.4,8,8,777.7,77777,9,999999999,0,0.0000,0,0,999.000,0.0,99.0
2025,1,24,2,0,?9?9?9?9E0?9?9?9?9*9?9?9?9?9*9?9*9*9?9*_?9?9*9?9*9,24.9,21.6,82,98090,0,1411,415,0,0,0,0,0,0,0,180,1.4,8,8,777.7,77777,9,999999999,0,0.0000,0,0,999.000,0.1,99.0
2025,1,24,3,0,?9?9?9?9E0?9?9?9?9*9?9?9?9?9*9?9*9*9?9*_?9?9*9?9*9,24.6,21.6,84,98090,0,1411,413,0,0,0,0,0,0,0,180,1.4,8,8,777.7,77777,9,999999999,0,0.0000,0,0,999.000,0.1,99.0
2025,1,24,4,0,?9?9?9?9E0?9?9?9?9*9?9?9?9?9*9?9*9*9?9*_?9?9*9?9*9,24.2,21.6,85,98090,0,1411,412,0,0,0,0,0,0,0,180,1.4,8,8,777.7,77777,9,999999999,0,0.0000,0,0,999.000,0.0,99.0
2025,1,24,5,0,?9?9?9?9E0?9?9?9?9*9?9?9?9?9*9?9*9*9?9*_?9?9*9?9*9,24.0,21.6,86,98090,0,1411,410,0,0,0,0,0,0,0,180,1.4,8,8,777.7,77777,9,999999999,0,0.0000,0,0,999.000,0.0,99.0
2025,1,24,6,0,?9?9?9?9E0?9?9?9?9*9?9?9?9?9*9?9*9*9?9*_?9?9*9?9*9,23.8,21.6,83,98090,22,1411,409,0,0,0,0,0,0,0,180,1.4,8,8,777.7,77777,9,999999999,0,0.0000,0,0,999.000,0.0,99.0
2025,1,24,7,0,?9?9?9?9E0?9?9?9?9*9?9?9?9?9*9?9*9*9?9*_?9?9*9?9*9,23.6,21.6,88,98090,337,1411,408,33,0,33,3940,0,3611,44,180,1.4,8,8,777.7,77777,9,999999999,0,0.0000,0,0,999.000,0.2,99.0
2025,1,24,8,0,?9?9?9?9E0?9?9?9?9*9?9?9?9?9*9?9*9*9?9*_?9?9*9?9*9,25.0,21.6,86,98090,649,1411,416,198,38,180,23729,3607,19832,125,180,1.4,8,8,777.7,77777,9,999999999,3,0.0000,0,0,999.000,3.4,99.0
2025,1,24,9,0,?9?9?9?9E0?9?9?9?9*9?9?9?9?9*9?9*9*9?9*_?9?9*9?9*9,26.2,21.6,77,98090,929,1411,416,376,78,324,45085,7438,35662,157,180,1.4,7,7,777.7,77777,9,999999999,0,0.0000,0,0,999.000,0.0,99.0
2025,1,24,10,0,?9?9?9?9E0?9?9?9?9*9?9?9?9?9*9?9*9*9?9*_?9?9*9?9*9,27.2,21.6,69,98090,1156,1411,417,533,151,409,63930,14354,44980,159,180,1.4,6,6,777.7,77777,9,999999999,0,0.0000,0,0,999.000,0.0,99.0
2025,1,24,11,0,?9?9?9?9E0?9?9?9?9*9?9?9?9?9*9?9*9*9?9*_?9?9*9?9*9,28.2,21.6,66,98090,1317,1411,422,654,107,555,78504,10118,61024,189,180,2.0,6,6,777.7,77777,9,999999999,0,0.0000,0,0,999.000,0.0,99.0
2025,1,24,12,0,?9?9?9?9E0?9?9?9?9*9?9?9?9?9*9?9*9*9?9*_?9?9*9?9*9,29.0,21.6,63,98090,1400,1411,427,731,123,608,87662,11721,66892,195,180,2.2,6,6,777.7,77777,9,999999999,0,0.0000,0,0,999.000,0.0,99.0
2025,1,24,13,0,?9?9?9?9E0?9?9?9?9*9?9?9?9?9*9?9*9*9?9*_?9?9*9?9*9,29.6,21.6,61,98090,1398,1411,430,756,142,615,90725,13512,67657,198,180,3.6,6,6,777.7,77777,9,999999999,0,0.0000,0,0,999.000,0.0,99.0
2025,1,24,14,0,?9?9?9?9E0?9?9?9?9*9?9?9?9?9*9?9*9*9?9*_?9?9*9?9*9,30.0,21.6,60,98090,1313,1411,432,729,166,574,87468,15772,63179,196,180,4.9,6,6,777.7,77777,9,999999999,0,0.0000,0,0,999.000,0.0,99.0
2025,1,24,15,0,?9?9?9?9E0?9?9?9?9*9?9?9?9?9*9?9*9*9?9*_?9?9*9?9*9,30.2,21.6,59,98090,1150,1411,434,651,330,382,78127,31383,41993,149,180,5.6,6,6,777.7,77777,9,999999999,0,0.0000,0,0,999.000,0.0,99.0
2025,1,24,16,0,?9?9?9?9E0?9?9?9?9*9?9?9?9?9*9?9*9*9?9*_?9?9*9?9*9,30.2,21.6,59,98090,920,1411,434,528,391,273,63395,37162,30052,133,180,5.1,6,6,777.7,77777,9,999999999,0,0.0000,0,0,999.000,0.0,99.0
2025,1,24,17,0,?9?9?9?9E0?9?9?9?9*9?9?9?9?9*9?9*9*9?9*_?9?9*9?9*9,29.9,21.6,60,98090,639,1411,437,370,475,155,44428,45128,17073,109,180,4.3,7,7,777.7,77777,9,999999999,0,0.0000,0,0,999.000,0.0,99.0
2025,1,24,18,0,?9?9?9?9E0?9?9?9?9*9?9?9?9?9*9?9*9*9?9*_?9?9*9?9*9,29.3,21.6,62,98090,327,1411,441,192,467,84,23017,44333,9270,116,180,3.7,8,8,777.7,77777,9,999999999,0,0.0000,0,0,999.000,0.0,99.0
2025,1,24,19,0,?9?9?9?9E0?9?9?9?9*9?9?9?9?9*9?9*9*9?9*_?9?9*9?9*9,28.6,21.6,64,98090,13,1411,436,29,0,29,3445,0,3158,15450,180,2.3,8,8,777.7,77777,9,999999999,0,0.0000,0,0,999.000,0.0,99.0
2025,1,24,20,0,?9?9?9?9E0?9?9?9?9*9?9?9?9?9*9?9*9*9?9*_?9?9*9?9*9,27.9,21.6,67,98090,0,1411,432,0,0,0,0,0,0,0,180,1.4,8,8,777.7,77777,9,999999999,0,0.0000,0,0,999.000,0.0,99.0
2025,1,24,21,0,?9?9?9?9E0?9?9?9?9*9?9?9?9?9*9?9*9*9?9*_?9?9*9?9*9,27.2,21.6,69,98090,0,1411,428,0,0,0,0,0,0,0,180,1.4,8,8,777.7,77777,9,999999999,0,0.0000,0,0,999.000,0.0,99.0
2025,1,24,22,0,?9?9?9?9E0?9?9?9?9*9?9?9?9?9*9?9*9*9?9*_?9?9*9?9*9,26.5,21.6,76,98090,0,1411,424,0,0,0,0,0,0,0,180,1.4,8,8,777.7,77777,9,999999999,0,0.0000,0,0,999.000,0.0,99.0
2025,1,24,23,0,?9?9?9?9E0?9?9?9?9*9?9?9?9?9*9?9*9*9?9*_?9?9*9?9*9,25.8,21.6,79,98090,0,1411,420,0,0,0,0,0,0,0,180,1.4,8,8,777.7,77777,9,999999999,0,0.0000,0,0,999.000,0.1,99.0
2025,1,24,24,0,?9?9?9?9E0?9?9?9?9*9?9?9?9?9*9?9*9*9?9*_?9?9*9?9*9,25.1,22.2,81,98090,0,1411,417,0,0,0,0,0,0,0,180,2.0,8,8,777.7,77777,9,999999999,0,0.0000,0,0,999.000,0.0,99.0
2025,1,25,1,0,?9?9?9?9E0?9?9?9?9*9?9?9?9?9*9?9*9*9?9*_?9?9*9?9*9,24.7,22.1,82,98090,0,1411,415,0,0,0,0,0,0,0,180,2.0,8,8,777.7,77777,9,999999999,0,0.0000,0,0,999.000,0.0,99.0
2025,1,25,2,0,?9?9?9?9E0?9?9?9?9*9?9?9?9?9*9?9*9*9?9*_?9?9*9?9*9,24.4,22.0,83,98090,0,1411,413,0,0,0,0,0,0,0,180,2.0,8,8,777.7,77777,9,999999999,0,0.0000,0,0,999.000,0.0,99.0
2025,1,25,3,0,?9?9?9?9E0?9?9?9?9*9?9?9?9?9*9?9*9*9?9*_?9?9*9?9*9,24.0,21.9,88,98090,0,1411,411,0,0,0,0,0,0,0,180,2.0,8,8,777.7,77777,9,999999999,0,0.0000,0,0,999.000,0.0,99.0
2025,1,25,4,0,?9?9?9?9E0?9?9?9?9*9?9?9?9?9*9?9*9*9?9*_?9?9*9?9*9,23.7,21.7,89,98090,0,1411,409,0,0,0,0,0,0,0,180,2.0,8,8,777.7,77777,9,999999999,0,0.0000,0,0,999.000,0.1,99.0
2025,1,25,5,0,?9?9?9?9E0?9?9?9?9*9?9?9?9?9*9?9*9*9?9*_?9?9*9?9*9,23.4,21.6,90,98090,0,1411,407,0,0,0,0,0,0,0,180,2.0,8,8,777.7,77777,9,999999999,0,0.0000,0,0,999.000,0.0,99.0
2025,1,25,6,0,?9?9?9?9E0?9?9?9?9*9?9?9?9?9*9?9*9*9?9*_?9?9*9?9*9,23.1,21.6,91,98090,19,1411,406,0,0,0,0,0,0,0,180,2.0,8,8,777.7,77777,9,999999999,0,0.0000,0,0,999.000,0.9,99.0
2025,1,25,7,0,?9?9?9?9E0?9?9?9?9*9?9?9?9?9*9?9*9*9?9*_?9?9*9?9*9,22.9,21.5,91,98090,334,1411,404,35,0,35,4162,0,3815,47,180,2.0,8,8,777.7,77777,9,999999999,0,0.0000,0,0,999.000,0.0,99.0
2025,1,25,8,0,?9?9?9?9E0?9?9?9?9*9?9?9?9?9*9?9*9*9?9*_?9?9*9?9*9,24.2,21.9,83,98090,646,1411,406,216,60,188,25871,5719,20684,131,180,2.0,7,7,777.7,77777,9,999999999,0,0.0000,0,0,999.000,0.0,99.0
2025,1,25,9,0,?9?9?9?9E0?9?9?9?9*9?9?9?9?9*9?9*9*9?9*_?9?9*9?9*9,25.2,22.2,81,98090,926,1411,407,412,137,322,49387,13028,35368,156,180,2.0,6,6,777.7,77777,9,999999999,0,0.0000,0,0,999.000,0.0,99.0
2025,1,25,10,0,?9?9?9?9E0?9?9?9?9*9?9?9?9?9*9?9*9*9?9*_?9?9*9?9*9,26.2,22.5,78,98090,1155,1411,409,585,220,404,70152,20910,44485,157,180,2.0,5,5,777.7,77777,9,999999999,0,0.0000,0,0,999.000,0.0,99.0
2025,1,25,11,0,?9?9?9?9E0?9?9?9?9*9?9?9?9?9*9?9*9*9?9*_?9?9*9?9*9,27.1,22.8,76,98090,1316,1411,414,719,155,574,86221,14757,63094,196,180,2.0,5,5,777.7,77777,9,999999999,0,0.0000,0,0,999.000,0.0,99.0
2025,1,25,12,0,?9?9?9?9E0?9?9?9?9*9?9?9?9?9*9?9*9*9?9*_?9?9*9?9*9,27.8,23.0,74,98090,1399,1411,419,803,323,482,96331,30677,53072,155,180,2.2,5,5,777.7,77777,9,999999999,0,0.0000,0,0,999.000,0.0,99.0
2025,1,25,13,0,?9?9?9?9E0?9?9?9?9*9?9?9?9?9*9?9*9*9?9*_?9?9*9?9*9,28.4,23.2,73,98090,1398,1411,422,831,371,463,99730,35243,50972,149,180,3.5,5,5,777.7,77777,9,999999999,0,0.0000,0,0,999.000,0.0,99.0
2025,1,25,14,0,?9?9?9?9E0?9?9?9?9*9?9?9?9?9*9?9*9*9?9*_?9?9*9?9*9,28.8,23.3,72,98090,1313,1411,424,801,436,395,96170,41461,43464,135,180,4.1,5,5,777.7,77777,9,999999999,0,0.0000,0,0,999.000,0.0,99.0
2025,1,25,15,0,?9?9?9?9E0?9?9?9?9*9?9?9?9?9*9?9*9*9?9*_?9?9*9?9*9,29.0,23.4,71,98090,1150,1411,425,716,491,315,85908,46672,34688,123,180,3.7,5,5,777.7,77777,9,999999999,0,0.0000,0,0,999.000,0.0,99.0
2025,1,25,16,0,?9?9?9?9E0?9?9?9?9*9?9?9?9?9*9?9*9*9?9*_?9?9*9?9*9,29.0,23.4,71,98090,920,1411,425,581,571,209,69707,54198,22974,102,180,2.8,5,5,777.7,77777,9,999999999,0,0.0000,0,0,999.000,0.0,99.0
2025,1,25,17,0,?9?9?9?9E0?9?9?9?9*9?9?9?9?9*9?9*9*9?9*_?9?9*9?9*9,28.7,23.3,72,98090,639,1411,428,407,598,136,48838,56840,14988,96,180,2.1,6,6,777.7,77777,9,999999999,0,0.0000,0,0,999.000,0.0,99.0
2025,1,25,18,0,?9?9?9?9E0?9?9?9?9*9?9?9?9?9*9?9*9*9?9*_?9?9*9?9*9,28.2,23.1,73,98090,326,1411,429,211,588,75,25272,55841,8295,104,180,2.0,7,7,777.7,77777,9,999999999,0,0.0000,0,0,999.000,0.0,99.0
2025,1,25,19,0,?9?9?9?9E0?9?9?9?9*9?9?9?9?9*9?9*9*9?9*_?9?9*9?9*9,27.5,22.9,75,98090,12,1411,432,31,0,0,3745,0,0,0,180,2.0,8,8,777.7,77777,9,999999999,0,0.0000,0,0,999.000,0.0,99.0
2025,1,25,20,0,?9?9?9?9E0?9?9?9?9*9?9?9?9?9*9?9*9*9?9*_?9?9*9?9*9,27.0,22.8,76,98090,0,1411,428,0,0,0,0,0,0,0,180,2.0,8,8,777.7,77777,9,999999999,0,0.0000,0,0,999.000,0.0,99.0
2025,1,25,21,0,?9?9?9?9E0?9?9?9?9*9?9?9?9?9*9?9*9*9?9*_?9?9*9?9*9,26.4,22.6,78,98090,0,1411,425,0,0,0,0,0,0,0,180,2.0,8,8,777.7,77777,9,999999999,0,0.0000,0,0,999.000,0.0,99.0
2025,1,25,22,0,?9?9?9?9E0?9?9?9?9*9?9?9?9?9*9?9*9*9?9*_?9?9*9?9*9,25.8,22.4,83,98090,0,1411,422,0,0,0,0,0,0,0,180,2.0,8,8,777.7,77777,9,999999999,0,0.0000,0,0,999.000,0.0,99.0
2025,1,25,23,0,?9?9?9?9E0?9?9?9?9*9?9?9?9?9*9?9*9*9?9*_?9?9*9?9*9,25.3,22.2,85,98090,0,1411,418,0,0,0,0,0,0,0,180,2.0,8,8,777.7,77777,9,999999999,0,0.0000,0,0,999.000,0.0,99.0
2025,1,25,24,0,?9?9?9?9E0?9?9?9?9*9?9?9?9?9*9?9*9*9?9*_?9?9*9?9*9,24.7,21.3,81,98090,0,1411,414,0,0,0,0,0,0,0,180,2.1,8,8,777.7,77777,9,999999999,0,0.0000,0,0,999.000,0.0,99.0
2025,1,26,1,0,?9?9?9?9E0?9?9?9?9*9?9?9?9?9*9?9*9*9?9*_?9?9*9?9*9,24.4,21.2,82,98090,0,1411,412,0,0,0,0,0,0,0,180,2.1,8,8,777.7,77777,9,999999999,0,0.0000,0,0,999.000,0.0,99.0
2025,1,26,2,0,?9?9?9?9E0?9?9?9?9*9?9?9?9?9*9?9*9*9?9*_?9?9*9?9*9,24.1,21.1,82,98090,0,1411,411,0,0,0,0,0,0,0,180,2.1,8,8,777.7,77777,9,999999999,0,0.0000,0,0,999.000,0.0,99.0
2025,1,26,3,0,?9?9?9?9E0?9?9?9?9*9?9?9?9?9*9?9*9*9?9*_?9?9*9?9*9,23.9,21.0,83,98090,0,1411,409,0,0,0,0,0,0,0,180,2.1,8,8,777.7,77777,9,999999999,0,0.0000,0,0,999.000,0.0,99.0
2025,1,26,4,0,?9?9?9?9E0?9?9?9?9*9?9?9?9?9*9?9*9*9?9*_?9?9*9?9*9,23.6,20.9,84,98090,0,1410,407,0,0,0,0,0,0,0,180,2.1,8,8,777.7,77777,9,999999999,0,0.0000,0,0,999.000,0.0,99.0
2025,1,26,5,0,?9?9?9?9E0?9?9?9?9*9?9?9?9?9*9?9*9*9?9*_?9?9*9?9*9,23.4,20.8,85,98090,0,1410,406,0,0,0,0,0,0,0,180,2.1,8,8,777.7,77777,9,999999999,0,0.0000,0,0,999.000,0.0,99.0
2025,1,26,6,0,?9?9?9?9E0?9?9?9?9*9?9?9?9?9*9?9*9*9?9*_?9?9*9?9*9,23.2,20.7,86,98090,16,1410,405,0,0,0,0,0,0,0,180,2.1,8,8,777.7,77777,9,999999999,0,0.0000,0,0,999.000,0.0,99.0
2025,1,26,7,0,?9?9?9?9E0?9?9?9?9*9?9?9?9?9*9?9*9*9?9*_?9?9*9?9*9,23.0,20.6,86,98090,331,1410,404,41,0,41,4866,0,4461,55,180,2.1,8,8,777.7,77777,9,999999999,0,0.0000,0,0,999.000,0.0,99.0
2025,1,26,8,0,?9?9?9?9E0?9?9?9?9*9?9?9?9?9*9?9*9*9?9*_?9?9*9?9*9,24.3,21.1,82,98090,644,1410,400,232,81,195,27814,7723,21419,136,180,2.1,6,6,777.7,77777,9,999999999,0,0.0000,0,0,999.000,0.0,99.0
2025,1,26,9,0,?9?9?9?9E0?9?9?9?9*9?9?9?9?9*9?9*9*9?9*_?9?9*9?9*9,25.6,21.6,78,98090,924,1410,382,538,385,286,64583,36607,31431,139,180,2.1,0,0,777.7,77777,9,999999999,0,0.0000,0,0,999.000,0.0,99.0
2025,1,26,10,0,?9?9?9?9E0?9?9?9?9*9?9?9?9?9*9?9*9*9?9*_?9?9*9?9*9,26.8,22.0,74,98090,1153,1410,388,773,591,289,92750,56171,31841,113,180,2.1,0,0,777.7,77777,9,999999999,0,0.0000,0,0,999.000,0.0,99.0
2025,1,26,11,0,?9?9?9?9E0?9?9?9?9*9?9?9?9?9*9?9*9*9?9*_?9?9*9?9*9,27.6,22.3,72,98090,1315,1410,406,815,461,385,97852,43835,42372,132,180,2.2,2,2,777.7,77777,9,999999999,0,0.0000,0,0,999.000,0.0,99.0
2025,1,26,12,0,?9?9?9?9E0?9?9?9?9*9?9?9?9?9*9?9*9*9?9*_?9?9*9?9*9,28.1,22.4,71,98090,1398,1410,419,785,310,478,94211,29439,52561,153,180,3.4,5,5,777.7,77777,9,999999999,0,0.0000,0,0,999.000,0.0,99.0
2025,1,26,13,0,?9?9?9?9E0?9?9?9?9*9?9?9?9?9*9?9*9*9?9*_?9?9*9?9*9,28.4,22.5,70,98090,1398,1410,429,694,166,529,83238,15805,58164,170,180,3.3,7,7,777.7,77777,9,999999999,0,0.0000,0,0,999.000,0.0,99.0
2025,1,26,14,0,?9?9?9?9E0?9?9?9?9*9?9?9?9?9*9?9*9*9?9*_?9?9*9?9*9,28.6,22.6,69,98090,1313,1410,422,768,343,448,92100,32574,49312,153,180,3.7,5,5,777.7,77777,9,999999999,0,0.0000,0,0,999.000,0.0,99.0
2025,1,26,15,0,?9?9?9?9E0?9?9?9?9*9?9?9?9?9*9?9*9*9?9*_?9?9*9?9*9,28.5,22.6,70,98090,1150,1410,437,523,146,404,62749,13834,44459,158,180,2.9,8,8,777.7,77777,9,999999999,0,0.0000,0,0,999.000,0.0,99.0
2025,1,26,16,0,?9?9?9?9E0?9?9?9?9*9?9?9?9?9*9?9*9*9?9*_?9?9*9?9*9,28.5,22.5,70,98090,920,1410,425,540,398,280,64828,37844,30852,137,180,2.7,6,6,777.7,77777,9,999999999,0,0.0000,0,0,999.000,0.0,99.0
2025,1,26,17,0,?9?9?9?9E0?9?9?9?9*9?9?9?9?9*9?9*9*9?9*_?9?9*9?9*9,28.1,22.4,71,98090,638,1410,428,362,444,161,43463,42176,17756,114,180,2.1,7,7,777.7,77777,9,999999999,0,0.0000,0,0,999.000,0.0,99.0
2025,1,26,18,0,?9?9?9?9E0?9?9?9?9*9?9?9?9?9*9?9*9*9?9*_?9?9*9?9*9,27.5,22.2,72,98090,325,1410,431,113,101,90,13603,9557,9930,125,180,2.1,8,8,777.7,77777,9,999999999,0,0.0000,0,0,999.000,0.0,99.0
2025,1,26,19,0,?9?9?9?9E0?9?9?9?9*9?9?9?9?9*9?9*9*9?9*_?9?9*9?9*9,26.9,22.0,74,98090,11,1410,427,32,0,0,3781,0,0,0,180,2.1,8,8,777.7,77777,9,999999999,0,0.0000,0,0,999.000,0.0,99.0
2025,1,26,20,0,?9?9?9?9E0?9?9?9?9*9?9?9?9?9*9?9*9*9?9*_?9?9*9?9*9,26.4,21.9,76,98090,0,1410,424,0,0,0,0,0,0,0,180,2.1,8,8,777.7,77777,9,999999999,0,0.0000,0,0,999.000,0.0,99.0
2025,1,26,21,0,?9?9?9?9E0?9?9?9?9*9?9?9?9?9*9?9*9*9?9*_?9?9*9?9*9,25.9,21.7,77,98090,0,1410,421,0,0,0,0,0,0,0,180,2.1,8,8,777.7,77777,9,999999999,0,0.0000,0,0,999.000,0.0,99.0
2025,1,26,22,0,?9?9?9?9E0?9?9?9?9*9?9?9?9?9*9?9*9*9?9*_?9?9*9?9*9,25.4,21.5,79,98090,0,1410,418,0,0,0,0,0,0,0,180,2.1,8,8,777.7,77777,9,999999999,0,0.0000,0,0,999.000,0.0,99.0
2025,1,26,23,0,?9?9?9?9E0?9?9?9?9*9?9?9?9?9*9?9*9*9?9*_?9?9*9?9*9,24.8,21.3,80,98090,0,1410,415,0,0,0,0,0,0,0,180,2.1,8,8,777.7,77777,9,999999999,0,0.0000,0,0,999.000,0.0,99.0
2025,1,26,24,0,?9?9?9?9E0?9?9?9?9*9?9?9?9?9*9?9*9*9?9*_?9?9*9?9*9,24.3,21.5,84,98090,0,1410,412,0,0,0,0,0,0,0,180,1.5,8,8,777.7,77777,9,999999999,0,0.0000,0,0,999.000,0.0,99.0
2025,1,27,1,0,?9?9?9?9E0?9?9?9?9*9?9?9?9?9*9?9*9*9?9*_?9?9*9?9*9,24.1,21.4,85,98090,0,1410,411,0,0,0,0,0,0,0,180,1.5,8,8,777.7,77777,9,999999999,0,0.0000,0,0,999.000,0.0,99.0
2025,1,27,2,0,?9?9?9?9E0?9?9?9?9*9?9?9?9?9*9?9*9*9?9*_?9?9*9?9*9,23.8,21.4,86,98090,0,1410,409,0,0,0,0,0,0,0,180,1.5,8,8,777.7,77777,9,999999999,0,0.0000,0,0,999.000,0.0,99.0
2025,1,27,3,0,?9?9?9?9E0?9?9?9?9*9?9?9?9?9*9?9*9*9?9*_?9?9*9?9*9,23.5,21.3,87,98090,0,1410,408,0,0,0,0,0,0,0,180,1.5,8,8,777.7,77777,9,999999999,0,0.0000,0,0,999.000,0.0,99.0
2025,1,27,4,0,?9?9?9?9E0?9?9?9?9*9?9?9?9?9*9?9*9*9?9*_?9?9*9?9*9,23.3,21.2,88,98090,0,1410,406,0,0,0,0,0,0,0,180,1.5,8,8,777.7,77777,9,999999999,0,0.0000,0,0,999.000,0.0,99.0
2025,1,27,5,0,?9?9?9?9E0?9?9?9?9*9?9?9?9?9*9?9*9*9?9*_?9?9*9?9*9,23.0,21.2,89,98090,0,1410,405,0,0,0,0,0,0,0,180,1.5,8,8,777.7,77777,9,999999999,0,0.0000,0,0,999.000,0.0,99.0
2025,1,27,6,0,?9?9?9?9E0?9?9?9?9*9?9?9?9?9*9?9*9*9?9*_?9?9*9?9*9,22.9,21.1,90,98090,13,1410,404,0,0,0,0,0,0,0,180,1.5,8,8,777.7,77777,9,999999999,0,0.0000,0,0,999.000,0.0,99.0
2025,1,27,7,0,?9?9?9?9E0?9?9?9?9*9?9?9?9?9*9?9*9*9?9*_?9?9*9?9*9,22.7,21.1,90,98090,328,1410,403,41,0,41,4882,0,4475,56,180,1.5,8,8,777.7,77777,9,999999999,0,0.0000,0,0,999.000,0.0,99.0
2025,1,27,8,0,?9?9?9?9E0?9?9?9?9*9?9?9?9?9*9?9*9*9?9*_?9?9*9?9*9,24.2,21.5,84,98090,641,1410,397,259,135,198,31062,12806,21739,139,180,1.5,5,5,777.7,77777,9,999999999,0,0.0000,0,0,999.000,0.0,99.0
2025,1,27,9,0,?9?9?9?9E0?9?9?9?9*9?9?9?9?9*9?9*9*9?9*_?9?9*9?9*9,25.4,21.8,80,98090,922,1410,394,509,319,301,61121,30287,33100,147,180,1.5,2,2,777.7,77777,9,999999999,0,0.0000,0,0,999.000,0.0,99.0
2025,1,27,10,0,?9?9?9?9E0?9?9?9?9*9?9?9?9?9*9?9*9*9?9*_?9?9*9?9*9,26.6,22.0,76,98090,1152,1410,387,728,504,317,87391,47858,34853,123,180,1.5,0,0,777.7,77777,9,999999999,0,0.0000,0,0,999.000,0.0,99.0
2025,1,27,11,0,?9?9?9?9E0?9?9?9?9*9?9?9?9?9*9?9*9*9?9*_?9?9*9?9*9,27.6,22.3,72,98090,1314,1410,393,896,611,327,107474,58013,35928,112,180,1.8,0,0,777.7,77777,9,999999999,0,0.0000,0,0,999.000,0.0,99.0
2025,1,27,12,0,?9?9?9?9E0?9?9?9?9*9?9?9?9?9*9?9*9*9?9*_?9?9*9?9*9,28.5,22.5,70,98090,1397,1410,398,997,613,389,119592,58217,42809,125,180,2.4,0,0,777.7,77777,9,999999999,0,0.0000,0,0,999.000,0.0,99.0
2025,1,27,13,0,?9?9?9?9E0?9?9?9?9*9?9?9?9?9*9?9*9*9?9*_?9?9*9?9*9,29.2,22.6,67,98090,1397,1410,402,1035,733,308,124238,69681,33934,99,180,3.4,0,0,777.7,77777,9,999999999,0,0.0000,0,0,999.000,0.0,99.0
2025,1,27,14,0,?9?9?9?9E0?9?9?9?9*9?9?9?9?9*9?9*9*9?9*_?9?9*9?9*9,29.6,22.8,66,98090,1313,1410,404,1003,889,176,120400,84420,19366,60,180,4.4,0,0,777.7,77777,9,999999999,0,0.0000,0,0,999.000,0.0,99.0
2025,1,27,15,0,?9?9?9?9E0?9?9?9?9*9?9?9?9?9*9?9*9*9?9*_?9?9*9?9*9,29.9,22.8,65,98090,1150,1410,405,887,985,84,106436,93567,9234,33,180,5.1,0,0,777.7,77777,9,999999999,0,0.0000,0,0,999.000,0.0,99.0
2025,1,27,16,0,?9?9?9?9E0?9?9?9?9*9?9?9?9?9*9?9*9*9?9*_?9?9*9?9*9,29.9,22.8,65,98090,919,1410,406,730,832,188,87658,78998,20719,92,180,4.6,0,0,777.7,77777,9,999999999,0,0.0000,0,0,999.000,0.0,99.0
2025,1,27,17,0,?9?9?9?9E0?9?9?9?9*9?9?9?9?9*9?9*9*9?9*_?9?9*9?9*9,29.6,22.7,66,98090,638,1410,404,520,789,163,62381,74932,17974,115,180,4.7,0,0,777.7,77777,9,999999999,0,0.0000,0,0,999.000,0.0,99.0
2025,1,27,18,0,?9?9?9?9E0?9?9?9?9*9?9?9?9?9*9?9*9*9?9*_?9?9*9?9*9,29.0,22.6,68,98090,324,1410,421,271,596,135,32554,56629,14835,188,180,3.4,4,4,777.7,77777,9,999999999,0,0.0000,0,0,999.000,0.0,99.0
2025,1,27,19,0,?9?9?9?9E0?9?9?9?9*9?9?9?9?9*9?9*9*9?9*_?9?9*9?9*9,28.2,22.4,71,98090,9,1410,435,44,0,0,5322,0,0,0,180,2.3,8,8,777.7,77777,9,999999999,0,0.0000,0,0,999.000,0.0,99.0
2025,1,27,20,0,?9?9?9?9E0?9?9?9?9*9?9?9?9?9*9?9*9*9?9*_?9?9*9?9*9,27.6,22.3,72,98090,0,1410,431,0,0,0,0,0,0,0,180,1.5,8,8,777.7,77777,9,999999999,0,0.0000,0,0,999.000,0.0,99.0
2025,1,27,21,0,?9?9?9?9E0?9?9?9?9*9?9?9?9?9*9?9*9*9?9*_?9?9*9?9*9,27.0,22.1,74,98090,0,1410,428,0,0,0,0,0,0,0,180,1.5,8,8,777.7,77777,9,999999999,0,0.0000,0,0,999.000,0.0,99.0
2025,1,27,22,0,?9?9?9?9E0?9?9?9?9*9?9?9?9?9*9?9*9*9?9*_?9?9*9?9*9,26.4,22.0,76,98090,0,1410,424,0,0,0,0,0,0,0,180,1.5,8,8,777.7,77777,9,999999999,0,0.0000,0,0,999.000,0.0,99.0
2025,1,27,23,0,?9?9?9?9E0?9?9?9?9*9?9?9?9?9*9?9*9*9?9*_?9?9*9?9*9,25.8,21.9,78,98090,0,1410,421,0,0,0,0,0,0,0,180,1.5,8,8,777.7,77777,9,999999999,0,0.0000,0,0,999.000,0.0,99.0
2025,1,27,24,0,?9?9?9?9E0?9?9?9?9*9?9?9?9?9*9?9*9*9?9*_?9?9*9?9*9,25.2,22.4,87,98090,0,1410,418,0,0,0,0,0,0,0,180,1.9,8,8,777.7,77777,9,999999999,0,0.0000,0,0,999.000,0.1,99.0
2025,1,28,1,0,?9?9?9?9E0?9?9?9?9*9?9?9?9?9*9?9*9*9?9*_?9?9*9?9*9,24.9,22.4,88,98090,0,1410,416,0,0,0,0,0,0,0,180,1.9,8,8,777.7,77777,9,999999999,0,0.0000,0,0,999.000,0.0,99.0
2025,1,28,2,0,?9?9?9?9E0?9?9?9?9*9?9?9?9?9*9?9*9*9?9*_?9?9*9?9*9,24.6,22.3,89,98090,0,1410,415,0,0,0,0,0,0,0,180,1.9,8,8,777.7,77777,9,999999999,0,0.0000,0,0,999.000,0.1,99.0
2025,1,28,3,0,?9?9?9?9E0?9?9?9?9*9?9?9?9?9*9?9*9*9?9*_?9?9*9?9*9,24.3,22.3,90,98090,0,1410,413,0,0,0,0,0,0,0,180,1.9,8,8,777.7,77777,9,999999999,0,0.0000,0,0,999.000,0.1,99.0
2025,1,28,4,0,?9?9?9?9E0?9?9?9?9*9?9?9?9?9*9?9*9*9?9*_?9?9*9?9*9,24.0,22.2,87,98090,0,1409,411,0,0,0,0,0,0,0,180,1.9,8,8,777.7,77777,9,999999999,0,0.0000,0,0,999.000,0.0,99.0
2025,1,28,5,0,?9?9?9?9E0?9?9?9?9*9?9?9?9?9*9?9*9*9?9*_?9?9*9?9*9,23.8,22.2,92,98090,0,1409,410,0,0,0,0,0,0,0,180,1.9,8,8,777.7,77777,9,999999999,0,0.0000,0,0,999.000,0.0,99.0
2025,1,28,6,0,?9?9?9?9E0?9?9?9?9*9?9?9?9?9*9?9*9*9?9*_?9?9*9?9*9,23.6,22.2,89,98090,10,1409,409,0,0,0,0,0,0,0,180,1.9,8,8,777.7,77777,9,999999999,0,0.0000,0,0,999.000,0.0,99.0
2025,1,28,7,0,?9?9?9?9E0?9?9?9?9*9?9?9?9?9*9?9*9*9?9*_?9?9*9?9*9,23.4,22.1,90,98090,325,1409,408,29,0,29,3539,0,3244,41,180,1.9,8,8,777.7,77777,9,999999999,0,0.0000,0,0,999.000,0.0,99.0
2025,1,28,8,0,?9?9?9?9E0?9?9?9?9*9?9?9?9?9*9?9*9*9?9*_?9?9*9?9*9,24.6,22.3,84,98090,638,1409,408,203,47,181,24312,4437,19962,128,180,1.9,7,7,777.7,77777,9,999999999,0,0.0000,0,0,999.000,0.0,99.0
2025,1,28,9,0,?9?9?9?9E0?9?9?9?9*9?9?9?9?9*9?9*9*9?9*_?9?9*9?9*9,25.6,22.5,81,98090,920,1409,409,392,117,316,47072,11088,34774,154,180,1.9,6,6,777.7,77777,9,999999999,0,0.0000,0,0,999.000,0.0,99.0
2025,1,28,10,0,?9?9?9?9E0?9?9?9?9*9?9?9?9?9*9?9*9*9?9*_?9?9*9?9*9,26.5,22.6,77,98090,1150,1409,414,560,189,406,67212,17998,44612,158,180,1.9,6,6,777.7,77777,9,999999999,0,0.0000,0,0,999.000,0.0,99.0
2025,1,28,11,0,?9?9?9?9E0?9?9?9?9*9?9?9?9?9*9?9*9*9?9*_?9?9*9?9*9,27.4,22.7,74,98090,1312,1409,416,690,134,565,82823,12735,62191,193,180,1.9,5,5,777.7,77777,9,999999999,0,0.0000,0,0,999.000,0.0,99.0
2025,1,28,12,0,?9?9?9?9E0?9?9?9?9*9?9?9?9?9*9?9*9*9?9*_?9?9*9?9*9,28.1,22.8,72,98090,1397,1409,420,772,156,618,92675,14774,68002,199,180,2.6,5,5,777.7,77777,9,999999999,0,0.0000,0,0,999.000,0.0,99.0
2025,1,28,13,0,?9?9?9?9E0?9?9?9?9*9?9?9?9?9*9?9*9*9?9*_?9?9*9?9*9,28.7,22.9,70,98090,1396,1409,423,800,321,482,96035,30530,53007,155,180,3.3,5,5,777.7,77777,9,999999999,0,0.0000,0,0,999.000,0.0,99.0
2025,1,28,14,0,?9?9?9?9E0?9?9?9?9*9?9?9?9?9*9?9*9*9?9*_?9?9*9?9*9,29.0,23.0,69,98090,1312,1409,425,772,374,424,92657,35497,46674,145,180,4.2,5,5,777.7,77777,9,999999999,0,0.0000,0,0,999.000,0.0,99.0
2025,1,28,15,0,?9?9?9?9E0?9?9?9?9*9?9?9?9?9*9?9*9*9?9*_?9?9*9?9*9,29.2,23.0,69,98090,1149,1409,426,690,411,354,82784,39082,38994,138,180,3.6,5,5,777.7,77777,9,999999999,0,0.0000,0,0,999.000,0.0,99.0
2025,1,28,16,0,?9?9?9?9E0?9?9?9?9*9?9?9?9?9*9?9*9*9?9*_?9?9*9?9*9,29.2,23.0,69,98090,919,1409,430,560,486,243,67152,46182,26705,119,180,3.7,6,6,777.7,77777,9,999999999,0,0.0000,0,0,999.000,0.0,99.0
2025,1,28,17,0,?9?9?9?9E0?9?9?9?9*9?9?9?9?9*9?9*9*9?9*_?9?9*9?9*9,29.0,23.0,69,98090,637,1409,429,392,582,129,46987,55251,14187,91,180,3.6,6,6,777.7,77777,9,999999999,0,0.0000,0,0,999.000,0.0,99.0
2025,1,28,18,0,?9?9?9?9E0?9?9?9?9*9?9?9?9?9*9?9*9*9?9*_?9?9*9?9*9,28.5,22.9,71,98090,323,1409,431,202,562,74,24204,53354,8092,103,180,2.3,7,7,777.7,77777,9,999999999,0,0.0000,0,0,999.000,0.0,99.0
2025,1,28,19,0,?9?9?9?9E0?9?9?9?9*9?9?9?9?9*9?9*9*9?9*_?9?9*9?9*9,27.8,22.8,78,98090,8,1409,433,29,0,0,3452,0,0,0,180,1.9,8,8,777.7,77777,9,999999999,0,0.0000,0,0,999.000,0.0,99.0
2025,1,28,20,0,?9?9?9?9E0?9?9?9?9*9?9?9?9?9*9?9*9*9?9*_?9?9*9?9*9,27.3,22.7,79,98090,0,1409,430,0,0,0,0,0,0,0,180,1.9,8,8,777.7,77777,9,999999999,0,0.0000,0,0,999.000,0.0,99.0
2025,1,28,21,0,?9?9?9?9E0?9?9?9?9*9?9?9?9?9*9?9*9*9?9*_?9?9*9?9*9,26.8,22.6,81,98090,0,1409,428,0,0,0,0,0,0,0,180,1.9,8,8,777.7,77777,9,999999999,0,0.0000,0,0,999.000,0.0,99.0
2025,1,28,22,0,?9?9?9?9E0?9?9?9?9*9?9?9?9?9*9?9*9*9?9*_?9?9*9?9*9,26.3,22.6,83,98090,0,1409,425,0,0,0,0,0,0,0,180,1.9,8,8,777.7,77777,9,999999999,0,0.0000,0,0,999.000,0.2,99.0
2025,1,28,23,0,?9?9?9?9E0?9?9?9?9*9?9?9?9?9*9?9*9*9?9*_?9?9*9?9*9,25.8,22.5,89,98090,0,1409,422,0,0,0,0,0,0,0,180,1.9,8,8,777.7,77777,9,999999999,3,0.0000,0,0,999.000,3.4,99.0
2025,1,28,24,0,?9?9?9?9E0?9?9?9?9*9?9?9?9?9*9?9*9*9?9*_?9?9*9?9*9,25.3,23.2,88,98090,0,1409,420,0,0,0,0,0,0,0,180,2.3,8,8,777.7,77777,9,999999999,0,0.0000,0,0,999.000,0.4,99.0
2025,1,29,1,0,?9?9?9?9E0?9?9?9?9*9?9?9?9?9*9?9*9*9?9*_?9?9*9?9*9,25.0,23.2,89,98090,0,1409,418,0,0,0,0,0,0,0,180,2.3,8,8,777.7,77777,9,999999999,0,0.0000,0,0,999.000,0.5,99.0
2025,1,29,2,0,?9?9?9?9E0?9?9?9?9*9?9?9?9?9*9?9*9*9?9*_?9?9*9?9*9,24.8,23.1,90,98090,0,1409,417,0,0,0,0,0,0,0,180,2.3,8,8,777.7,77777,9,999999999,0,0.0000,0,0,999.000,0.1,99.0
2025,1,29,3,0,?9?9?9?9E0?9?9?9?9*9?9?9?9?9*9?9*9*9?9*_?9?9*9?9*9,24.5,23.1,91,98090,0,1409,415,0,0,0,0,0,0,0,180,2.3,8,8,777.7,77777,9,999999999,0,0.0000,0,0,999.000,0.1,99.0
2025,1,29,4,0,?9?9?9?9E0?9?9?9?9*9?9?9?9?9*9?9*9*9?9*_?9?9*9?9*9,24.3,23.0,92,98090,0,1409,414,0,0,0,0,0,0,0,180,2.3,8,8,777.7,77777,9,999999999,0,0.0000,0,0,999.000,0.2,99.0
2025,1,29,5,0,?9?9?9?9E0?9?9?9?9*9?9?9?9?9*9?9*9*9?9*_?9?9*9?9*9,24.1,23.0,93,98090,0,1409,413,0,0,0,0,0,0,0,180,2.3,8,8,777.7,77777,9,999999999,0,0.0000,0,0,999.000,0.3,99.0
2025,1,29,6,0,?9?9?9?9E0?9?9?9?9*9?9?9?9?9*9?9*9*9?9*_?9?9*9?9*9,23.9,22.9,94,98090,7,1409,412,0,0,0,0,0,0,0,180,2.3,8,8,777.7,77777,9,999999999,0,0.0000,0,0,999.000,0.1,99.0
2025,1,29,7,0,?9?9?9?9E0?9?9?9?9*9?9?9?9?9*9?9*9*9?9*_?9?9*9?9*9,23.8,22.9,94,98090,322,1409,411,6,0,6,742,0,680,9,180,2.3,8,8,777.7,77777,9,999999999,0,0.0000,0,0,999.000,0.1,99.0
2025,1,29,8,0,?9?9?9?9E0?9?9?9?9*9?9?9?9?9*9?9*9*9?9*_?9?9*9?9*9,24.7,23.1,91,98090,636,1409,416,44,0,44,5276,0,4837,31,180,2.3,8,8,777.7,77777,9,999999999,0,0.0000,0,0,999.000,0.2,99.0
2025,1,29,9,0,?9?9?9?9E0?9?9?9?9*9?9?9?9?9*9?9*9*9?9*_?9?9*9?9*9,25.4,23.2,88,98090,918,1409,420,86,0,86,10266,0,9411,42,180,2.3,8,8,777.7,77777,9,999999999,0,0.0000,0,0,999.000,0.2,99.0
2025,1,29,10,0,?9?9?9?9E0?9?9?9?9*9?9?9?9?9*9?9*9*9?9*_?9?9*9?9*9,26.1,23.4,85,98090,1148,1409,425,122,0,122,14684,0,13461,48,180,2.3,8,8,777.7,77777,9,999999999,0,0.0000,0,0,999.000,0.0,99.0
2025,1,29,11,0,?9?9?9?9E0?9?9?9?9*9?9?9?9?9*9?9*9*9?9*_?9?9*9?9*9,26.8,23.5,78,98090,1311,1409,428,151,1,150,18109,99,16493,51,180,2.3,8,8,777.7,77777,9,999999999,0,0.0000,0,0,999.000,0.0,99.0
2025,1,29,12,0,?9?9?9?9E0?9?9?9?9*9?9?9?9?9*9?9*9*9?9*_?9?9*9?9*9,27.2,23.7,81,98090,1396,1409,431,161,2,159,19356,186,17530,51,180,2.3,8,8,777.7,77777,9,999999999,0,0.0000,0,0,999.000,0.0,99.0
2025,1,29,13,0,?9?9?9?9E0?9?9?9?9*9?9?9?9?9*9?9*9*9?9*_?9?9*9?9*9,27.6,23.7,79,98090,1396,1409,434,165,2,162,19742,207,17860,52,180,2.3,8,8,777.7,77777,9,999999999,0,0.0000,0,0,999.000,0.0,99.0
2025,1,29,14,0,?9?9?9?9E0?9?9?9?9*9?9?9?9?9*9?9*9*9?9*_?9?9*9?9*9,27.9,23.8,78,98090,1312,1409,435,156,1,155,18763,138,17051,53,180,2.3,8,8,777.7,77777,9,999999999,0,0.0000,0,0,999.000,0.0,99.0
2025,1,29,15,0,?9?9?9?9E0?9?9?9?9*9?9?9?9?9*9?9*9*9?9*_?9?9*9?9*9,28.0,23.8,83,98090,1149,1409,436,150,1,149,17972,51,16426,58,180,2.3,8,8,777.7,77777,9,999999999,1,0.0000,0,0,999.000,1.0,99.0
2025,1,29,16,0,?9?9?9?9E0?9?9?9?9*9?9?9?9?9*9?9*9*9?9*_?9?9*9?9*9,28.0,23.8,83,98090,918,1409,436,122,0,122,14694,0,13470,60,180,2.3,8,8,777.7,77777,9,999999999,1,0.0000,0,0,999.000,1.3,99.0
2025,1,29,17,0,?9?9?9?9E0?9?9?9?9*9?9?9?9?9*9?9*9*9?9*_?9?9*9?9*9,27.9,23.8,88,98090,636,1409,435,86,0,86,10276,0,9419,60,180,2.3,8,8,777.7,77777,9,999999999,39,0.0000,0,0,999.000,39.0,99.0
2025,1,29,18,0,?9?9?9?9E0?9?9?9?9*9?9?9?9?9*9?9*9*9?9*_?9?9*9?9*9,27.5,23.7,85,98090,322,1409,433,44,0,44,5284,0,4843,62,180,2.3,8,8,777.7,77777,9,999999999,2,0.0000,0,0,999.000,2.3,99.0
2025,1,29,19,0,?9?9?9?9E0?9?9?9?9*9?9?9?9?9*9?9*9*9?9*_?9?9*9?9*9,27.0,23.6,82,98090,7,1409,430,6,0,0,742,0,0,0,180,2.3,8,8,777.7,77777,9,999999999,0,0.0000,0,0,999.000,0.4,99.0
2025,1,29,20,0,?9?9?9?9E0?9?9?9?9*9?9?9?9?9*9?9*9*9?9*_?9?9*9?9*9,26.8,23.5,82,98090,0,1409,428,0,0,0,0,0,0,0,180,2.3,8,8,777.7,77777,9,999999999,0,0.0000,0,0,999.000,0.6,99.0
2025,1,29,21,0,?9?9?9?9E0?9?9?9?9*9?9?9?9?9*9?9*9*9?9*_?9?9*9?9*9,26.5,23.5,83,98090,0,1409,427,0,0,0,0,0,0,0,180,2.3,8,8,777.7,77777,9,999999999,0,0.0000,0,0,999.000,0.8,99.0
2025,1,29,22,0,?9?9?9?9E0?9?9?9?9*9?9?9?9?9*9?9*9*9?9*_?9?9*9?9*9,26.3,23.5,89,98090,0,1409,425,0,0,0,0,0,0,0,180,2.4,8,8,777.7,77777,9,999999999,1,0.0000,0,0,999.000,1.6,99.0
2025,1,29,23,0,?9?9?9?9E0?9?9?9?9*9?9?9?9?9*9?9*9*9?9*_?9?9*9?9*9,26.0,23.4,90,98090,0,1409,424,0,0,0,0,0,0,0,180,2.3,8,8,777.7,77777,9,999999999,3,0.0000,0,0,999.000,3.7,99.0
2025,1,29,24,0,?9?9?9?9E0?9?9?9?9*9?9?9?9?9*9?9*9*9?9*_?9?9*9?9*9,25.8,23.5,84,98090,0,1409,423,0,0,0,0,0,0,0,180,2.3,8,8,777.7,77777,9,999999999,0,0.0000,0,0,999.000,0.3,99.0
2025,1,30,1,0,?9?9?9?9E0?9?9?9?9*9?9?9?9?9*9?9*9*9?9*_?9?9*9?9*9,25.7,23.5,84,98090,0,1409,422,0,0,0,0,0,0,0,180,2.3,8,8,777.7,77777,9,999999999,0,0.0000,0,0,999.000,0.2,99.0
2025,1,30,2,0,?9?9?9?9E0?9?9?9?9*9?9?9?9?9*9?9*9*9?9*_?9?9*9?9*9,25.5,23.5,85,98090,0,1409,421,0,0,0,0,0,0,0,180,2.3,8,8,777.7,77777,9,999999999,0,0.0000,0,0,999.000,0.0,99.0
2025,1,30,3,0,?9?9?9?9E0?9?9?9?9*9?9?9?9?9*9?9*9*9?9*_?9?9*9?9*9,25.4,23.5,85,98090,0,1409,421,0,0,0,0,0,0,0,180,2.3,8,8,777.7,77777,9,999999999,0,0.0000,0,0,999.000,0.0,99.0
2025,1,30,4,0,?9?9?9?9E0?9?9?9?9*9?9?9?9?9*9?9*9*9?9*_?9?9*9?9*9,25.3,23.4,85,98090,0,1409,420,0,0,0,0,0,0,0,180,2.3,8,8,777.7,77777,9,999999999,0,0.0000,0,0,999.000,0.6,99.0
2025,1,30,5,0,?9?9?9?9E0?9?9?9?9*9?9?9?9?9*9?9*9*9?9*_?9?9*9?9*9,25.2,23.4,86,98090,0,1409,419,0,0,0,0,0,0,0,180,2.3,8,8,777.7,77777,9,999999999,0,0.0000,0,0,999.000,0.2,99.0
2025,1,30,6,0,?9?9?9?9E0?9?9?9?9*9?9?9?9?9*9?9*9*9?9*_?9?9*9?9*9,25.1,23.4,90,98090,4,1409,419,0,0,0,0,0,0,0,180,2.3,8,8,777.7,77777,9,999999999,1,0.0000,0,0,999.000,1.1,99.0
2025,1,30,7,0,?9?9?9?9E0?9?9?9?9*9?9?9?9?9*9?9*9*9?9*_?9?9*9?9*9,25.0,23.4,86,98090,319,1409,418,10,0,10,1160,0,1064,14,180,2.3,8,8,777.7,77777,9,999999999,0,0.0000,0,0,999.000,0.4,99.0
2025,1,30,8,0,?9?9?9?9E0?9?9?9?9*9?9?9?9?9*9?9*9*9?9*_?9?9*9?9*9,25.9,23.5,88,98090,633,1409,423,71,0,71,8552,0,7840,51,180,2.3,8,8,777.7,77777,9,999999999,2,0.0000,0,0,999.000,2.7,99.0
2025,1,30,9,0,?9?9?9?9E0?9?9?9?9*9?9?9?9?9*9?9*9*9?9*_?9?9*9?9*9,26.5,23.7,81,98090,916,1409,427,139,0,139,16720,0,15326,68,180,2.3,8,8,777.7,77777,9,999999999,0,0.0000,0,0,999.000,0.9,99.0
2025,1,30,10,0,?9?9?9?9E0?9?9?9?9*9?9?9?9?9*9?9*9*9?9*_?9?9*9?9*9,27.1,23.8,80,98090,1147,1409,430,172,2,170,20626,198,18720,67,180,2.3,8,8,777.7,77777,9,999999999,0,0.0000,0,0,999.000,0.7,99.0
2025,1,30,11,0,?9?9?9?9E0?9?9?9?9*9?9?9?9?9*9?9*9*9?9*_?9?9*9?9*9,27.6,23.9,86,98090,1310,1409,434,227,5,222,27242,473,24463,76,180,2.3,8,8,777.7,77777,9,999999999,67,0.0000,0,0,999.000,67.1,99.0
2025,1,30,12,0,?9?9?9?9E0?9?9?9?9*9?9?9?9?9*9?9*9*9?9*_?9?9*9?9*9,28.0,23.9,85,98090,1395,1409,436,244,6,238,29245,553,26174,76,180,2.3,8,8,777.7,77777,9,999999999,6,0.0000,0,0,999.000,6.2,99.0
2025,1,30,13,0,?9?9?9?9E0?9?9?9?9*9?9?9?9?9*9?9*9*9?9*_?9?9*9?9*9,28.3,24.0,80,98090,1395,1409,438,245,4,241,29372,381,26488,77,180,2.3,8,8,777.7,77777,9,999999999,3,0.0000,0,0,999.000,3.8,99.0
2025,1,30,14,0,?9?9?9?9E0?9?9?9?9*9?9?9?9?9*9?9*9*9?9*_?9?9*9?9*9,28.7,24.0,79,98090,1311,1409,440,301,2,298,36060,231,32806,102,180,2.3,8,8,777.7,77777,9,999999999,1,0.0000,0,0,999.000,1.6,99.0
2025,1,30,15,0,?9?9?9?9E0?9?9?9?9*9?9?9?9?9*9?9*9*9?9*_?9?9*9?9*9,28.9,24.1,78,98090,1148,1409,442,281,12,271,33676,1129,29804,106,180,2.3,8,8,777.7,77777,9,999999999,2,0.0000,0,0,999.000,2.1,99.0
2025,1,30,16,0,?9?9?9?9E0?9?9?9?9*9?9?9?9?9*9?9*9*9?9*_?9?9*9?9*9,28.9,24.1,78,98090,918,1409,442,196,3,194,23507,252,21358,95,180,2.3,8,8,777.7,77777,9,999999999,1,0.0000,0,0,999.000,1.3,99.0
2025,1,30,17,0,?9?9?9?9E0?9?9?9?9*9?9?9?9?9*9?9*9*9?9*_?9?9*9?9*9,28.8,24.1,75,98090,635,1409,441,137,0,137,16393,0,15027,97,180,2.3,8,8,777.7,77777,9,999999999,0,0.0000,0,0,999.000,0.5,99.0
2025,1,30,18,0,?9?9?9?9E0?9?9?9?9*9?9?9?9?9*9?9*9*9?9*_?9?9*9?9*9,28.4,24.0,76,98090,321,1409,439,72,0,72,8609,0,7891,101,180,2.3,8,8,777.7,77777,9,999999999,0,0.0000,0,0,999.000,0.1,99.0
2025,1,30,19,0,?9?9?9?9E0?9?9?9?9*9?9?9?9?9*9?9*9*9?9*_?9?9*9?9*9,28.0,23.9,77,98090,5,1409,436,10,0,0,1189,0,0,0,180,2.3,8,8,777.7,77777,9,999999999,0,0.0000,0,0,999.000,0.1,99.0
2025,1,30,20,0,?9?9?9?9E0?9?9?9?9*9?9?9?9?9*9?9*9*9?9*_?9?9*9?9*9,27.6,23.9,78,98090,0,1409,427,0,0,0,0,0,0,0,180,2.3,7,7,777.7,77777,9,999999999,0,0.0000,0,0,999.000,0.1,99.0
2025,1,30,21,0,?9?9?9?9E0?9?9?9?9*9?9?9?9?9*9?9*9*9?9*_?9?9*9?9*9,27.2,23.8,79,98090,0,1409,424,0,0,0,0,0,0,0,180,2.3,7,7,777.7,77777,9,999999999,0,0.0000,0,0,999.000,0.0,99.0
2025,1,30,22,0,?9?9?9?9E0?9?9?9?9*9?9?9?9?9*9?9*9*9?9*_?9?9*9?9*9,26.7,23.7,77,98090,0,1409,417,0,0,0,0,0,0,0,180,2.3,6,6,777.7,77777,9,999999999,0,0.0000,0,0,999.000,0.0,99.0
2025,1,30,23,0,?9?9?9?9E0?9?9?9?9*9?9?9?9?9*9?9*9*9?9*_?9?9*9?9*9,26.3,23.6,78,98090,0,1409,411,0,0,0,0,0,0,0,180,2.3,5,5,777.7,77777,9,999999999,0,0.0000,0,0,999.000,0.0,99.0
2025,1,30,24,0,?9?9?9?9E0?9?9?9?9*9?9?9?9?9*9?9*9*9?9*_?9?9*9?9*9,25.9,22.8,77,98090,0,1409,408,0,0,0,0,0,0,0,180,2.1,5,5,777.7,77777,9,999999999,0,0.0000,0,0,999.000,0.0,99.0
2025,1,31,1,0,?9?9?9?9E0?9?9?9?9*9?9?9?9?9*9?9*9*9?9*_?9?9*9?9*9,25.7,22.8,78,98090,0,1409,403,0,0,0,0,0,0,0,180,2.1,4,4,777.7,77777,9,999999999,0,0.0000,0,0,999.000,0.0,99.0
2025,1,31,2,0,?9?9?9?9E0?9?9?9?9*9?9?9?9?9*9?9*9*9?9*_?9?9*9?9*9,25.5,22.7,78,98090,0,1409,399,0,0,0,0,0,0,0,180,2.1,3,3,777.7,77777,9,999999999,0,0.0000,0,0,999.000,0.0,99.0
2025,1,31,3,0,?9?9?9?9E0?9?9?9?9*9?9?9?9?9*9?9*9*9?9*_?9?9*9?9*9,25.3,22.6,79,98090,0,1409,398,0,0,0,0,0,0,0,180,2.1,3,3,777.7,77777,9,999999999,0,0.0000,0,0,999.000,0.0,99.0
2025,1,31,4,0,?9?9?9?9E0?9?9?9?9*9?9?9?9?9*9?9*9*9?9*_?9?9*9?9*9,25.1,22.6,79,98090,0,1408,393,0,0,0,0,0,0,0,180,2.1,2,2,777.7,77777,9,999999999,0,0.0000,0,0,999.000,0.0,99.0
2025,1,31,5,0,?9?9?9?9E0?9?9?9?9*9?9?9?9?9*9?9*9*9?9*_?9?9*9?9*9,24.9,22.5,79,98090,0,1408,386,0,0,0,0,0,0,0,180,2.1,1,1,777.7,77777,9,999999999,0,0.0000,0,0,999.000,0.0,99.0
2025,1,31,6,0,?9?9?9?9E0?9?9?9?9*9?9?9?9?9*9?9*9*9?9*_?9?9*9?9*9,24.8,22.5,80,98090,1,1408,386,0,0,0,0,0,0,0,180,2.1,1,1,777.7,77777,9,999999999,0,0.0000,0,0,999.000,0.0,99.0
2025,1,31,7,0,?9?9?9?9E0?9?9?9?9*9?9?9?9?9*9?9*9*9?9*_?9?9*9?9*9,24.6,22.4,80,98090,316,1408,378,83,10,81,9958,976,8876,115,180,2.1,0,0,777.7,77777,9,999999999,0,0.0000,0,0,999.000,0.0,99.0
2025,1,31,8,0,?9?9?9?9E0?9?9?9?9*9?9?9?9?9*9?9*9*9?9*_?9?9*9?9*9,25.5,22.7,81,98090,631,1408,420,102,0,102,12246,0,11226,73,180,2.1,8,8,777.7,77777,9,999999999,0,0.0000,0,0,999.000,0.2,99.0
2025,1,31,9,0,?9?9?9?9E0?9?9?9?9*9?9?9?9?9*9?9*9*9?9*_?9?9*9?9*9,26.1,22.9,80,98090,914,1408,424,256,16,246,30684,1484,27013,121,180,2.1,8,8,777.7,77777,9,999999999,0,0.0000,0,0,999.000,0.1,99.0
2025,1,31,10,0,?9?9?9?9E0?9?9?9?9*9?9?9?9?9*9?9*9*9?9*_?9?9*9?9*9,26.6,23.0,76,98090,1145,1408,427,367,32,341,44038,3045,37502,134,180,2.1,8,8,777.7,77777,9,999999999,0,0.0000,0,0,999.000,0.0,99.0
2025,1,31,11,0,?9?9?9?9E0?9?9?9?9*9?9?9?9?9*9?9*9*9?9*_?9?9*9?9*9,26.7,23.0,79,98090,1309,1408,427,253,12,241,30311,1144,26554,83,180,2.1,8,8,777.7,77777,9,999999999,0,0.0000,0,0,999.000,0.0,99.0
2025,1,31,12,0,?9?9?9?9E0?9?9?9?9*9?9?9?9?9*9?9*9*9?9*_?9?9*9?9*9,27.2,23.2,78,98090,1394,1408,430,508,42,467,60959,3969,51330,150,180,2.1,8,8,777.7,77777,9,999999999,0,0.0000,0,0,999.000,0.1,99.0
2025,1,31,13,0,?9?9?9?9E0?9?9?9?9*9?9?9?9?9*9?9*9*9?9*_?9?9*9?9*9,27.5,23.3,80,98090,1394,1408,433,527,57,470,63220,5420,51737,151,180,2.3,8,8,777.7,77777,9,999999999,1,0.0000,0,0,999.000,1.4,99.0
2025,1,31,14,0,?9?9?9?9E0?9?9?9?9*9?9?9?9?9*9?9*9*9?9*_?9?9*9?9*9,27.8,23.4,80,98090,1310,1408,434,508,66,447,61019,6303,49144,153,180,3.0,8,8,777.7,77777,9,999999999,2,0.0000,0,0,999.000,2.1,99.0
2025,1,31,15,0,?9?9?9?9E0?9?9?9?9*9?9?9?9?9*9?9*9*9?9*_?9?9*9?9*9,27.9,23.4,79,98090,1147,1408,435,454,58,407,54517,5550,44739,159,180,3.1,8,8,777.7,77777,9,999999999,3,0.0000,0,0,999.000,3.7,99.0
2025,1,31,16,0,?9?9?9?9E0?9?9?9?9*9?9?9?9?9*9?9*9*9?9*_?9?9*9?9*9,28.0,23.4,79,98090,917,1408,435,368,61,329,44195,5800,36142,161,180,3.5,8,8,777.7,77777,9,999999999,1,0.0000,0,0,999.000,1.0,99.0
2025,1,31,17,0,?9?9?9?9E0?9?9?9?9*9?9?9?9?9*9?9*9*9?9*_?9?9*9?9*9,27.8,23.4,76,98090,634,1408,434,257,122,202,30865,11590,22256,143,180,2.8,8,8,777.7,77777,9,999999999,0,0.0000,0,0,999.000,0.3,99.0
2025,1,31,18,0,?9?9?9?9E0?9?9?9?9*9?9?9?9?9*9?9*9*9?9*_?9?9*9?9*9,27.4,23.3,78,98090,319,1408,432,158,406,67,18982,38583,7323,94,180,2.6,8,8,777.7,77777,9,999999999,0,0.0000,0,0,999.000,0.5,99.0
2025,1,31,19,0,?9?9?9?9E0?9?9?9?9*9?9?9?9?9*9?9*9*9?9*_?9?9*9?9*9,27.1,23.2,78,98090,4,1408,430,85,0,0,10143,0,0,0,180,2.3,8,8,777.7,77777,9,999999999,0,0.0000,0,0,999.000,0.4,99.0
2025,1,31,20,0,?9?9?9?9E0?9?9?9?9*9?9?9?9?9*9?9*9*9?9*_?9?9*9?9*9,26.6,23.0,80,98090,0,1408,427,33,0,0,3970,0,0,0,180,2.2,8,8,777.7,77777,9,999999999,10,0.0000,0,0,999.000,10.1,99.0
2025,1,31,21,0,?9?9?9?9E0?9?9?9?9*9?9?9?9?9*9?9*9*9?9*_?9?9*9?9*9,26.1,22.9,81,98090,0,1408,424,7,0,0,810,0,0,0,180,2.1,8,8,777.7,77777,9,999999999,10,0.0000,0,0,999.000,10.2,99.0
2025,1,31,22,0,?9?9?9?9E0?9?9?9?9*9?9?9?9?9*9?9*9*9?9*_?9?9*9?9*9,25.4,22.5,81,98090,0,1408,419,0,0,0,0,0,0,0,180,2.1,8,8,777.7,77777,9,999999999,10,0.0000,0,0,999.000,10.0,99.0
2025,1,31,23,0,?9?9?9?9E0?9?9?9?9*9?9?9?9?9*9?9*9*9?9*_?9?9*9?9*9,24.8,22.2,82,98090,0,1408,416,0,0,0,0,0,0,0,180,2.1,8,8,777.7,77777,9,999999999,10,0.0000,0,0,999.000,10.0,99.0
2025,1,31,24,0,?9?9?9?9E0?9?9?9?9*9?9?9?9?9*9?9*9*9?9*_?9?9*9?9*9,24.2,21.9,83,98090,0,1408,405,0,0,0,0,0,0,0,180,2.1,7,7,777.7,77777,9,999999999,10,0.0000,0,0,999.000,10.0,99.0
2010,2,1,1,0,?9?9?9?9E0?9?9?9?9*9?9?9?9?9*9?9*9*9?9*_?9?9*9?9*9,23.6,21.6,83,98090,0,1408,402,0,0,0,0,0,0,0,180,2.0,7,7,777.7,77777,9,999999999,0,0.0000,0,0,999.000,0.2,99.0
2010,2,1,2,0,?9?9?9?9E0?9?9?9?9*9?9?9?9?9*9?9*9*9?9*_?9?9*9?9*9,23.1,21.4,84,98090,0,1408,399,0,0,0,0,0,0,0,180,2.0,7,7,777.7,77777,9,999999999,0,0.0000,0,0,999.000,0.3,99.0
2010,2,1,3,0,?9?9?9?9E0?9?9?9?9*9?9?9?9?9*9?9*9*9?9*_?9?9*9?9*9,22.7,21.3,87,98090,0,1408,397,0,0,0,0,0,0,0,180,2.0,7,7,777.7,77777,9,999999999,0,0.0000,0,0,999.000,0.3,99.0
2010,2,1,4,0,?9?9?9?9E0?9?9?9?9*9?9?9?9?9*9?9*9*9?9*_?9?9*9?9*9,22.4,21.3,90,98090,0,1408,401,0,0,0,0,0,0,0,180,2.0,8,8,777.7,77777,9,999999999,8,0.0000,0,0,999.000,8.8,99.0
2010,2,1,5,0,?9?9?9?9E0?9?9?9?9*9?9?9?9?9*9?9*9*9?9*_?9?9*9?9*9,22.0,21.3,91,98090,0,1408,399,3,0,0,304,0,0,0,180,2.0,8,8,777.7,77777,9,999999999,8,0.0000,0,0,999.000,8.8,99.0
2010,2,1,6,0,?9?9?9?9E0?9?9?9?9*9?9?9?9?9*9?9*9*9?9*_?9?9*9?9*9,21.7,21.3,98,98090,0,1408,397,0,0,0,0,0,0,0,180,2.0,8,8,777.7,77777,9,999999999,42,0.0000,0,0,999.000,42.7,99.0
2010,2,1,7,0,?9?9?9?9E0?9?9?9?9*9?9?9?9?9*9?9*9*9?9*_?9?9*9?9*9,21.4,21.3,92,98090,314,1408,396,13,0,13,1519,0,1393,18,180,2.1,8,8,777.7,77777,9,999999999,0,0.0000,0,0,999.000,0.6,99.0
2010,2,1,8,0,?9?9?9?9E0?9?9?9?9*9?9?9?9?9*9?9*9*9?9*_?9?9*9?9*9,22.7,21.3,87,98090,629,1408,403,99,0,99,11924,0,10931,71,180,2.1,8,8,777.7,77777,9,999999999,0,0.0000,0,0,999.000,0.4,99.0
2010,2,1,9,0,?9?9?9?9E0?9?9?9?9*9?9?9?9?9*9?9*9*9?9*_?9?9*9?9*9,24.1,21.4,81,98090,912,1408,411,235,12,228,28237,1108,25054,112,180,2.0,8,8,777.7,77777,9,999999999,0,0.0000,0,0,999.000,0.1,99.0
2010,2,1,10,0,?9?9?9?9E0?9?9?9?9*9?9?9?9?9*9?9*9*9?9*_?9?9*9?9*9,25.2,21.5,77,98090,1144,1408,417,321,17,307,38555,1622,33816,120,180,2.0,8,8,777.7,77777,9,999999999,0,0.0000,0,0,999.000,0.0,99.0
2010,2,1,11,0,?9?9?9?9E0?9?9?9?9*9?9?9?9?9*9?9*9*9?9*_?9?9*9?9*9,26.0,21.5,74,98090,1308,1408,422,341,21,322,40915,1986,35369,110,180,2.0,8,8,777.7,77777,9,999999999,0,0.0000,0,0,999.000,0.2,99.0
2010,2,1,12,0,?9?9?9?9E0?9?9?9?9*9?9?9?9?9*9?9*9*9?9*_?9?9*9?9*9,26.5,21.5,73,98090,1393,1408,424,319,3,316,38227,248,34758,102,180,2.0,8,8,777.7,77777,9,999999999,0,0.0000,0,0,999.000,0.1,99.0
2010,2,1,13,0,?9?9?9?9E0?9?9?9?9*9?9?9?9?9*9?9*9*9?9*_?9?9*9?9*9,26.3,21.5,73,98090,1394,1408,423,173,5,168,20700,468,18438,54,180,2.0,8,8,777.7,77777,9,999999999,0,0.0000,0,0,999.000,0.0,99.0
2010,2,1,14,0,?9?9?9?9E0?9?9?9?9*9?9?9?9?9*9?9*9*9?9*_?9?9*9?9*9,26.7,21.5,72,98090,1310,1408,426,353,18,336,42328,1733,36934,115,180,2.0,8,8,777.7,77777,9,999999999,0,0.0000,0,0,999.000,0.0,99.0
2010,2,1,15,0,?9?9?9?9E0?9?9?9?9*9?9?9?9?9*9?9*9*9?9*_?9?9*9?9*9,27.3,21.6,70,98090,1147,1408,429,469,95,392,56275,8999,43098,153,180,2.3,8,8,777.7,77777,9,999999999,0,0.0000,0,0,999.000,0.3,99.0
2010,2,1,16,0,?9?9?9?9E0?9?9?9?9*9?9?9?9?9*9?9*9*9?9*_?9?9*9?9*9,27.3,21.6,74,98090,916,1408,429,269,19,257,32334,1844,28251,126,180,2.7,8,8,777.7,77777,9,999999999,1,0.0000,0,0,999.000,1.1,99.0
2010,2,1,17,0,?9?9?9?9E0?9?9?9?9*9?9?9?9?9*9?9*9*9?9*_?9?9*9?9*9,27.3,21.6,74,98090,634,1408,429,239,82,202,28710,7815,22251,143,180,2.8,8,8,777.7,77777,9,999999999,2,0.0000,0,0,999.000,2.5,99.0
2010,2,1,18,0,?9?9?9?9E0?9?9?9?9*9?9?9?9?9*9?9*9*9?9*_?9?9*9?9*9,26.8,21.5,76,98090,318,1408,426,101,25,95,12104,2401,10470,135,180,3.5,8,8,777.7,77777,9,999999999,1,0.0000,0,0,999.000,1.8,99.0
2010,2,1,19,0,?9?9?9?9E0?9?9?9?9*9?9?9?9?9*9?9*9*9?9*_?9?9*9?9*9,26.1,21.5,78,98090,3,1408,422,14,0,0,1622,0,0,0,180,3.6,8,8,777.7,77777,9,999999999,4,0.0000,0,0,999.000,4.0,99.0
2010,2,1,20,0,?9?9?9?9E0?9?9?9?9*9?9?9?9?9*9?9*9*9?9*_?9?9*9?9*9,25.6,21.5,76,98090,0,1408,419,0,0,0,0,0,0,0,180,4.4,8,8,777.7,77777,9,999999999,0,0.0000,0,0,999.000,0.9,99.0
2010,2,1,21,0,?9?9?9?9E0?9?9?9?9*9?9?9?9?9*9?9*9*9?9*_?9?9*9?9*9,25.2,21.5,81,98090,0,1408,417,0,0,0,0,0,0,0,180,4.9,8,8,777.7,77777,9,999999999,1,0.0000,0,0,999.000,1.4,99.0
2010,2,1,22,0,?9?9?9?9E0?9?9?9?9*9?9?9?9?9*9?9*9*9?9*_?9?9*9?9*9,24.8,21.4,79,98090,0,1408,414,0,0,0,0,0,0,0,180,4.5,8,8,777.7,77777,9,999999999,0,0.0000,0,0,999.000,0.1,99.0
2010,2,1,23,0,?9?9?9?9E0?9?9?9?9*9?9?9?9?9*9?9*9*9?9*_?9?9*9?9*9,24.3,21.4,80,98090,0,1408,412,0,0,0,0,0,0,0,180,3.7,8,8,777.7,77777,9,999999999,0,0.0000,0,0,999.000,0.3,99.0
2010,2,1,24,0,?9?9?9?9E0?9?9?9?9*9?9?9?9?9*9?9*9*9?9*_?9?9*9?9*9,23.9,21.0,85,98090,0,1408,409,0,0,0,0,0,0,0,180,6.2,8,8,777.7,77777,9,999999999,0,0.0000,0,0,999.000,0.0,99.0
2010,2,2,1,0,?9?9?9?9E0?9?9?9?9*9?9?9?9?9*9?9*9*9?9*_?9?9*9?9*9,23.6,21.1,86,98090,0,1408,408,0,0,0,0,0,0,0,180,5.0,8,8,777.7,77777,9,999999999,0,0.0000,0,0,999.000,0.1,99.0
2010,2,2,2,0,?9?9?9?9E0?9?9?9?9*9?9?9?9?9*9?9*9*9?9*_?9?9*9?9*9,23.4,21.2,88,98090,0,1408,407,0,0,0,0,0,0,0,180,6.1,8,8,777.7,77777,9,999999999,0,0.0000,0,0,999.000,0.1,99.0
2010,2,2,3,0,?9?9?9?9E0?9?9?9?9*9?9?9?9?9*9?9*9*9?9*_?9?9*9?9*9,23.2,21.3,85,98090,0,1408,406,0,0,0,0,0,0,0,180,4.8,8,8,777.7,77777,9,999999999,0,0.0000,0,0,999.000,0.0,99.0
2010,2,2,4,0,?9?9?9?9E0?9?9?9?9*9?9?9?9?9*9?9*9*9?9*_?9?9*9?9*9,23.0,21.4,91,98090,0,1408,405,0,0,0,0,0,0,0,180,5.5,8,8,777.7,77777,9,999999999,0,0.0000,0,0,999.000,0.2,99.0
2010,2,2,5,0,?9?9?9?9E0?9?9?9?9*9?9?9?9?9*9?9*9*9?9*_?9?9*9?9*9,22.8,21.5,92,98090,0,1408,404,0,0,0,0,0,0,0,180,5.7,8,8,777.7,77777,9,999999999,0,0.0000,0,0,999.000,0.1,99.0
2010,2,2,6,0,?9?9?9?9E0?9?9?9?9*9?9?9?9?9*9?9*9*9?9*_?9?9*9?9*9,22.6,21.6,93,98090,0,1408,403,0,0,0,0,0,0,0,180,6.4,8,8,777.7,77777,9,999999999,0,0.0000,0,0,999.000,0.4,99.0
2010,2,2,7,0,?9?9?9?9E0?9?9?9?9*9?9?9?9?9*9?9*9*9?9*_?9?9*9?9*9,22.5,21.7,94,98090,311,1408,402,11,0,11,1342,0,1230,16,180,6.0,8,8,777.7,77777,9,999999999,0,0.0000,0,0,999.000,0.5,99.0
2010,2,2,8,0,?9?9?9?9E0?9?9?9?9*9?9?9?9?9*9?9*9*9?9*_?9?9*9?9*9,23.5,21.2,92,98090,626,1408,407,91,0,91,10937,0,10025,65,180,6.3,8,8,777.7,77777,9,999999999,2,0.0000,0,0,999.000,2.7,99.0
2010,2,2,9,0,?9?9?9?9E0?9?9?9?9*9?9?9?9?9*9?9*9*9?9*_?9?9*9?9*9,24.5,20.6,80,98090,910,1408,412,204,3,202,24535,328,22245,100,180,6.2,8,8,777.7,77777,9,999999999,0,0.0000,0,0,999.000,0.3,99.0
2010,2,2,10,0,?9?9?9?9E0?9?9?9?9*9?9?9?9?9*9?9*9*9?9*_?9?9*9?9*9,25.4,20.2,75,98090,1142,1408,417,289,13,278,34656,1218,30624,109,180,5.2,8,8,777.7,77777,9,999999999,0,0.0000,0,0,999.000,0.0,99.0
2010,2,2,11,0,?9?9?9?9E0?9?9?9?9*9?9?9?9?9*9?9*9*9?9*_?9?9*9?9*9,26.2,19.7,70,98090,1306,1408,421,355,21,336,42593,1973,36923,115,180,4.2,8,8,777.7,77777,9,999999999,0,0.0000,0,0,999.000,0.0,99.0
2010,2,2,12,0,?9?9?9?9E0?9?9?9?9*9?9?9?9?9*9?9*9*9?9*_?9?9*9?9*9,26.5,19.6,68,98090,1392,1408,422,276,2,273,33071,215,30068,88,180,5.2,8,8,777.7,77777,9,999999999,0,0.0000,0,0,999.000,0.0,99.0
2010,2,2,13,0,?9?9?9?9E0?9?9?9?9*9?9?9?9?9*9?9*9*9?9*_?9?9*9?9*9,26.9,19.4,62,98090,1393,1408,424,347,19,328,41590,1774,36091,106,180,5.1,8,8,777.7,77777,9,999999999,0,0.0000,0,0,999.000,0.0,99.0
2010,2,2,14,0,?9?9?9?9E0?9?9?9?9*9?9?9?9?9*9?9*9*9?9*_?9?9*9?9*9,27.0,19.3,61,98090,1309,1408,424,259,11,249,31073,1027,27378,85,180,5.1,8,8,777.7,77777,9,999999999,0,0.0000,0,0,999.000,0.0,99.0
2010,2,2,15,0,?9?9?9?9E0?9?9?9?9*9?9?9?9?9*9?9*9*9?9*_?9?9*9?9*9,27.3,19.2,60,98090,1146,1408,426,358,29,334,42974,2781,36771,131,180,4.6,8,8,777.7,77777,9,999999999,0,0.0000,0,0,999.000,0.0,99.0
2010,2,2,16,0,?9?9?9?9E0?9?9?9?9*9?9?9?9?9*9?9*9*9?9*_?9?9*9?9*9,27.5,19.1,63,98090,915,1408,426,319,28,301,38293,2690,33078,147,180,4.7,8,8,777.7,77777,9,999999999,0,0.0000,0,0,999.000,0.2,99.0
2010,2,2,17,0,?9?9?9?9E0?9?9?9?9*9?9?9?9?9*9?9*9*9?9*_?9?9*9?9*9,27.3,19.1,64,98090,632,1408,426,207,24,196,24803,2251,21566,139,180,4.4,8,8,777.7,77777,9,999999999,0,0.0000,0,0,999.000,0.7,99.0
2010,2,2,18,0,?9?9?9?9E0?9?9?9?9*9?9?9?9?9*9?9*9*9?9*_?9?9*9?9*9,26.9,19.4,66,98090,317,1408,424,93,11,90,11148,1082,9939,128,180,3.7,8,8,777.7,77777,9,999999999,0,0.0000,0,0,999.000,0.9,99.0
2010,2,2,19,0,?9?9?9?9E0?9?9?9?9*9?9?9?9?9*9?9*9*9?9*_?9?9*9?9*9,26.3,19.7,78,98090,1,1408,421,12,0,0,1463,0,0,0,180,4.1,8,8,777.7,77777,9,999999999,30,0.0000,0,0,999.000,30.6,99.0
2010,2,2,20,0,?9?9?9?9E0?9?9?9?9*9?9?9?9?9*9?9*9*9?9*_?9?9*9?9*9,25.9,19.9,76,98090,0,1408,419,0,0,0,0,0,0,0,180,3.7,8,8,777.7,77777,9,999999999,1,0.0000,0,0,999.000,1.6,99.0
2010,2,2,21,0,?9?9?9?9E0?9?9?9?9*9?9?9?9?9*9?9*9*9?9*_?9?9*9?9*9,25.6,20.1,78,98090,0,1408,417,0,0,0,0,0,0,0,180,4.8,8,8,777.7,77777,9,999999999,1,0.0000,0,0,999.000,1.1,99.0
2010,2,2,22,0,?9?9?9?9E0?9?9?9?9*9?9?9?9?9*9?9*9*9?9*_?9?9*9?9*9,25.2,20.3,76,98090,0,1408,415,0,0,0,0,0,0,0,180,4.8,8,8,777.7,77777,9,999999999,0,0.0000,0,0,999.000,0.3,99.0
2010,2,2,23,0,?9?9?9?9E0?9?9?9?9*9?9?9?9?9*9?9*9*9?9*_?9?9*9?9*9,24.8,20.5,78,98090,0,1408,414,0,0,0,0,0,0,0,180,4.8,8,8,777.7,77777,9,999999999,0,0.0000,0,0,999.000,0.1,99.0
2010,2,2,24,0,?9?9?9?9E0?9?9?9?9*9?9?9?9?9*9?9*9*9?9*_?9?9*9?9*9,24.4,21.9,86,98090,0,1408,413,0,0,0,0,0,0,0,180,1.3,8,8,777.7,77777,9,999999999,0,0.0000,0,0,999.000,0.0,99.0
2010,2,3,1,0,?9?9?9?9E0?9?9?9?9*9?9?9?9?9*9?9*9*9?9*_?9?9*9?9*9,24.2,21.9,83,98090,0,1408,412,0,0,0,0,0,0,0,180,1.3,8,8,777.7,77777,9,999999999,0,0.0000,0,0,999.000,0.0,99.0
2010,2,3,2,0,?9?9?9?9E0?9?9?9?9*9?9?9?9?9*9?9*9*9?9*_?9?9*9?9*9,24.1,21.9,88,98090,0,1408,411,0,0,0,0,0,0,0,180,1.3,8,8,777.7,77777,9,999999999,0,0.0000,0,0,999.000,0.0,99.0
2010,2,3,3,0,?9?9?9?9E0?9?9?9?9*9?9?9?9?9*9?9*9*9?9*_?9?9*9?9*9,23.9,21.8,84,98090,0,1408,410,0,0,0,0,0,0,0,180,1.3,8,8,777.7,77777,9,999999999,0,0.0000,0,0,999.000,0.0,99.0
2010,2,3,4,0,?9?9?9?9E0?9?9?9?9*9?9?9?9?9*9?9*9*9?9*_?9?9*9?9*9,23.7,21.8,85,98090,0,1407,409,0,0,0,0,0,0,0,180,1.3,8,8,777.7,77777,9,999999999,0,0.0000,0,0,999.000,0.0,99.0
2010,2,3,5,0,?9?9?9?9E0?9?9?9?9*9?9?9?9?9*9?9*9*9?9*_?9?9*9?9*9,23.5,21.8,90,98090,0,1407,408,0,0,0,0,0,0,0,180,1.3,8,8,777.7,77777,9,999999999,0,0.0000,0,0,999.000,0.0,99.0
2010,2,3,6,0,?9?9?9?9E0?9?9?9?9*9?9?9?9?9*9?9*9*9?9*_?9?9*9?9*9,23.4,21.8,90,98090,0,1407,407,0,0,0,0,0,0,0,180,1.3,8,8,777.7,77777,9,999999999,0,0.0000,0,0,999.000,0.1,99.0
2010,2,3,7,0,?9?9?9?9E0?9?9?9?9*9?9?9?9?9*9?9*9*9?9*_?9?9*9?9*9,23.3,21.8,91,98090,308,1407,407,22,0,22,2654,0,2433,32,180,1.3,8,8,777.7,77777,9,999999999,0,0.0000,0,0,999.000,0.1,99.0
2010,2,3,8,0,?9?9?9?9E0?9?9?9?9*9?9?9?9?9*9?9*9*9?9*_?9?9*9?9*9,24.5,21.9,86,98090,624,1407,413,187,34,172,22499,3277,18944,124,180,1.3,8,8,777.7,77777,9,999999999,0,0.0000,0,0,999.000,0.0,99.0
2010,2,3,9,0,?9?9?9?9E0?9?9?9?9*9?9?9?9?9*9?9*9*9?9*_?9?9*9?9*9,25.5,22.0,78,98090,908,1407,413,373,101,308,44764,9605,33862,152,180,1.9,7,7,777.7,77777,9,999999999,0,0.0000,0,0,999.000,0.0,99.0
2010,2,3,10,0,?9?9?9?9E0?9?9?9?9*9?9?9?9?9*9?9*9*9?9*_?9?9*9?9*9,26.4,22.2,75,98090,1140,1407,413,538,167,402,64531,15894,44244,158,180,2.8,6,6,777.7,77777,9,999999999,0,0.0000,0,0,999.000,0.0,99.0
2010,2,3,11,0,?9?9?9?9E0?9?9?9?9*9?9?9?9?9*9?9*9*9?9*_?9?9*9?9*9,27.3,22.3,73,98090,1305,1407,418,666,119,555,79890,11306,61092,191,180,3.7,6,6,777.7,77777,9,999999999,0,0.0000,0,0,999.000,0.0,99.0
2010,2,3,12,0,?9?9?9?9E0?9?9?9?9*9?9?9?9?9*9?9*9*9?9*_?9?9*9?9*9,28.0,22.4,70,98090,1391,1407,422,747,138,610,89624,13151,67105,196,180,5.2,6,6,777.7,77777,9,999999999,0,0.0000,0,0,999.000,0.0,99.0
2010,2,3,13,0,?9?9?9?9E0?9?9?9?9*9?9?9?9?9*9?9*9*9?9*_?9?9*9?9*9,28.6,22.5,69,98090,1392,1407,422,775,160,617,93006,15182,67866,199,180,5.6,5,5,777.7,77777,9,999999999,0,0.0000,0,0,999.000,0.0,99.0
2010,2,3,14,0,?9?9?9?9E0?9?9?9?9*9?9?9?9?9*9?9*9*9?9*_?9?9*9?9*9,29.0,22.5,68,98090,1308,1407,428,748,335,437,89790,31796,48083,150,180,5.6,6,6,777.7,77777,9,999999999,0,0.0000,0,0,999.000,0.0,99.0
2010,2,3,15,0,?9?9?9?9E0?9?9?9?9*9?9?9?9?9*9?9*9*9?9*_?9?9*9?9*9,29.2,22.5,67,98090,1145,1407,429,668,371,367,80207,35198,40361,144,180,5.2,6,6,777.7,77777,9,999999999,0,0.0000,0,0,999.000,0.0,99.0
2010,2,3,16,0,?9?9?9?9E0?9?9?9?9*9?9?9?9?9*9?9*9*9?9*_?9?9*9?9*9,29.2,22.5,67,98090,914,1407,429,541,438,257,64969,41563,28304,126,180,4.8,6,6,777.7,77777,9,999999999,0,0.0000,0,0,999.000,0.0,99.0
2010,2,3,17,0,?9?9?9?9E0?9?9?9?9*9?9?9?9?9*9?9*9*9?9*_?9?9*9?9*9,28.9,22.5,68,98090,631,1407,433,377,529,141,45278,50239,15456,100,180,4.2,7,7,777.7,77777,9,999999999,0,0.0000,0,0,999.000,0.0,99.0
2010,2,3,18,0,?9?9?9?9E0?9?9?9?9*9?9?9?9?9*9?9*9*9?9*_?9?9*9?9*9,28.4,22.4,73,98090,315,1407,436,192,540,72,23023,51314,7872,102,180,3.1,8,8,777.7,77777,9,999999999,0,0.0000,0,0,999.000,0.1,99.0
2010,2,3,19,0,?9?9?9?9E0?9?9?9?9*9?9?9?9?9*9?9*9*9?9*_?9?9*9?9*9,27.7,22.4,75,98090,0,1407,432,25,0,0,2952,0,0,0,180,2.6,8,8,777.7,77777,9,999999999,0,0.0000,0,0,999.000,0.1,99.0
2010,2,3,20,0,?9?9?9?9E0?9?9?9?9*9?9?9?9?9*9?9*9*9?9*_?9?9*9?9*9,27.2,22.3,77,98090,0,1407,429,0,0,0,0,0,0,0,180,2.1,8,8,777.7,77777,9,999999999,0,0.0000,0,0,999.000,0.3,99.0
2010,2,3,21,0,?9?9?9?9E0?9?9?9?9*9?9?9?9?9*9?9*9*9?9*_?9?9*9?9*9,26.7,22.2,87,98090,0,1407,427,0,0,0,0,0,0,0,180,1.3,8,8,777.7,77777,9,999999999,7,0.0000,0,0,999.000,7.6,99.0
2010,2,3,22,0,?9?9?9?9E0?9?9?9?9*9?9?9?9?9*9?9*9*9?9*_?9?9*9?9*9,26.2,22.1,80,98090,0,1407,424,0,0,0,0,0,0,0,180,1.3,8,8,777.7,77777,9,999999999,0,0.0000,0,0,999.000,0.2,99.0
2010,2,3,23,0,?9?9?9?9E0?9?9?9?9*9?9?9?9?9*9?9*9*9?9*_?9?9*9?9*9,25.7,22.1,82,98090,0,1407,421,0,0,0,0,0,0,0,180,1.3,8,8,777.7,77777,9,999999999,0,0.0000,0,0,999.000,0.5,99.0
2010,2,3,24,0,?9?9?9?9E0?9?9?9?9*9?9?9?9?9*9?9*9*9?9*_?9?9*9?9*9,25.2,21.6,83,98090,0,1407,417,0,0,0,0,0,0,0,180,1.6,8,8,777.7,77777,9,999999999,0,0.0000,0,0,999.000,0.1,99.0
2010,2,4,1,0,?9?9?9?9E0?9?9?9?9*9?9?9?9?9*9?9*9*9?9*_?9?9*9?9*9,25.0,21.6,84,98090,0,1407,416,0,0,0,0,0,0,0,180,1.6,8,8,777.7,77777,9,999999999,0,0.0000,0,0,999.000,0.2,99.0
2010,2,4,2,0,?9?9?9?9E0?9?9?9?9*9?9?9?9?9*9?9*9*9?9*_?9?9*9?9*9,24.7,21.5,85,98090,0,1407,414,0,0,0,0,0,0,0,180,1.6,8,8,777.7,77777,9,999999999,0,0.0000,0,0,999.000,0.3,99.0
2010,2,4,3,0,?9?9?9?9E0?9?9?9?9*9?9?9?9?9*9?9*9*9?9*_?9?9*9?9*9,24.5,21.4,86,98090,0,1407,413,0,0,0,0,0,0,0,180,1.6,8,8,777.7,77777,9,999999999,0,0.0000,0,0,999.000,0.0,99.0
2010,2,4,4,0,?9?9?9?9E0?9?9?9?9*9?9?9?9?9*9?9*9*9?9*_?9?9*9?9*9,24.2,21.4,82,98090,0,1407,411,0,0,0,0,0,0,0,180,1.6,8,8,777.7,77777,9,999999999,0,0.0000,0,0,999.000,0.0,99.0
2010,2,4,5,0,?9?9?9?9E0?9?9?9?9*9?9?9?9?9*9?9*9*9?9*_?9?9*9?9*9,24.0,21.3,83,98090,0,1407,410,0,0,0,0,0,0,0,180,1.6,8,8,777.7,77777,9,999999999,0,0.0000,0,0,999.000,0.0,99.0
2010,2,4,6,0,?9?9?9?9E0?9?9?9?9*9?9?9?9?9*9?9*9*9?9*_?9?9*9?9*9,23.8,21.2,83,98090,0,1407,409,0,0,0,0,0,0,0,180,1.6,8,8,777.7,77777,9,999999999,0,0.0000,0,0,999.000,0.0,99.0
2010,2,4,7,0,?9?9?9?9E0?9?9?9?9*9?9?9?9?9*9?9*9*9?9*_?9?9*9?9*9,23.6,21.2,84,98090,305,1407,408,20,0,20,2459,0,2254,30,180,1.6,8,8,777.7,77777,9,999999999,0,0.0000,0,0,999.000,0.0,99.0
2010,2,4,8,0,?9?9?9?9E0?9?9?9?9*9?9?9?9?9*9?9*9*9?9*_?9?9*9?9*9,25.0,21.6,79,98090,621,1407,416,181,28,168,21692,2666,18523,122,180,1.6,8,8,777.7,77777,9,999999999,0,0.0000,0,0,999.000,0.0,99.0
2010,2,4,9,0,?9?9?9?9E0?9?9?9?9*9?9?9?9?9*9?9*9*9?9*_?9?9*9?9*9,26.1,21.9,76,98090,906,1407,416,361,75,313,43366,7126,34442,155,180,1.6,7,7,777.7,77777,9,999999999,0,0.0000,0,0,999.000,0.0,99.0
2010,2,4,10,0,?9?9?9?9E0?9?9?9?9*9?9?9?9?9*9?9*9*9?9*_?9?9*9?9*9,27.2,22.2,73,98090,1138,1407,418,522,149,401,62617,14183,44111,158,180,2.0,6,6,777.7,77777,9,999999999,0,0.0000,0,0,999.000,0.0,99.0
2010,2,4,11,0,?9?9?9?9E0?9?9?9?9*9?9?9?9?9*9?9*9*9?9*_?9?9*9?9*9,28.2,22.5,70,98090,1304,1407,423,647,106,548,77580,10098,60280,188,180,3.4,6,6,777.7,77777,9,999999999,0,0.0000,0,0,999.000,0.0,99.0
2010,2,4,12,0,?9?9?9?9E0?9?9?9?9*9?9?9?9?9*9?9*9*9?9*_?9?9*9?9*9,29.0,22.7,68,98090,1390,1407,428,726,124,603,87068,11751,66371,194,180,3.8,6,6,777.7,77777,9,999999999,0,0.0000,0,0,999.000,0.0,99.0
2010,2,4,13,0,?9?9?9?9E0?9?9?9?9*9?9?9?9?9*9?9*9*9?9*_?9?9*9?9*9,29.7,22.9,66,98090,1391,1407,432,753,143,612,90372,13583,67289,197,180,4.4,6,6,777.7,77777,9,999999999,0,0.0000,0,0,999.000,0.0,99.0
2010,2,4,14,0,?9?9?9?9E0?9?9?9?9*9?9?9?9?9*9?9*9*9?9*_?9?9*9?9*9,30.1,23.0,65,98090,1307,1407,435,727,167,572,87251,15891,62883,196,180,4.3,6,6,777.7,77777,9,999999999,0,0.0000,0,0,999.000,0.0,99.0
2010,2,4,15,0,?9?9?9?9E0?9?9?9?9*9?9?9?9?9*9?9*9*9?9*_?9?9*9?9*9,30.3,23.1,65,98090,1144,1407,436,649,334,378,77929,31696,41591,148,180,5.4,6,6,777.7,77777,9,999999999,0,0.0000,0,0,999.000,0.0,99.0
2010,2,4,16,0,?9?9?9?9E0?9?9?9?9*9?9?9?9?9*9?9*9*9?9*_?9?9*9?9*9,30.4,23.1,65,98090,913,1407,437,526,396,269,63100,37659,29556,132,180,5.3,6,6,777.7,77777,9,999999999,0,0.0000,0,0,999.000,0.0,99.0
2010,2,4,17,0,?9?9?9?9E0?9?9?9?9*9?9?9?9?9*9?9*9*9?9*_?9?9*9?9*9,30.1,23.0,65,98090,629,1407,440,366,484,150,43936,45989,16480,107,180,4.8,7,7,777.7,77777,9,999999999,0,0.0000,0,0,999.000,0.0,99.0
2010,2,4,18,0,?9?9?9?9E0?9?9?9?9*9?9?9?9?9*9?9*9*9?9*_?9?9*9?9*9,29.5,22.9,71,98090,313,1407,443,186,591,55,22273,56139,6022,79,180,4.0,8,8,777.7,77777,9,999999999,0,0.0000,0,0,999.000,0.0,99.0
2010,2,4,19,0,?9?9?9?9E0?9?9?9?9*9?9?9?9?9*9?9*9*9?9*_?9?9*9?9*9,28.7,22.6,73,98090,0,1407,438,23,0,0,2786,0,0,0,180,2.8,8,8,777.7,77777,9,999999999,0,0.0000,0,0,999.000,0.0,99.0
2010,2,4,20,0,?9?9?9?9E0?9?9?9?9*9?9?9?9?9*9?9*9*9?9*_?9?9*9?9*9,28.2,22.5,75,98090,0,1407,435,0,0,0,0,0,0,0,180,2.0,8,8,777.7,77777,9,999999999,0,0.0000,0,0,999.000,0.0,99.0
2010,2,4,21,0,?9?9?9?9E0?9?9?9?9*9?9?9?9?9*9?9*9*9?9*_?9?9*9?9*9,27.7,22.4,76,98090,0,1407,432,0,0,0,0,0,0,0,180,1.7,8,8,777.7,77777,9,999999999,0,0.0000,0,0,999.000,0.1,99.0
2010,2,4,22,0,?9?9?9?9E0?9?9?9?9*9?9?9?9?9*9?9*9*9?9*_?9?9*9?9*9,27.2,22.2,78,98090,0,1407,429,0,0,0,0,0,0,0,180,1.6,8,8,777.7,77777,9,999999999,0,0.0000,0,0,999.000,0.1,99.0
2010,2,4,23,0,?9?9?9?9E0?9?9?9?9*9?9?9?9?9*9?9*9*9?9*_?9?9*9?9*9,26.6,22.1,84,98090,0,1407,426,0,0,0,0,0,0,0,180,1.6,8,8,777.7,77777,9,999999999,4,0.0000,0,0,999.000,4.3,99.0
2010,2,4,24,0,?9?9?9?9E0?9?9?9?9*9?9?9?9?9*9?9*9*9?9*_?9?9*9?9*9,26.1,22.0,76,98090,0,1407,423,0,0,0,0,0,0,0,180,1.6,8,8,777.7,77777,9,999999999,0,0.0000,0,0,999.000,0.1,99.0
2010,2,5,1,0,?9?9?9?9E0?9?9?9?9*9?9?9?9?9*9?9*9*9?9*_?9?9*9?9*9,25.9,22.0,77,98090,0,1407,421,0,0,0,0,0,0,0,180,1.3,8,8,777.7,77777,9,999999999,0,0.0000,0,0,999.000,0.1,99.0
2010,2,5,2,0,?9?9?9?9E0?9?9?9?9*9?9?9?9?9*9?9*9*9?9*_?9?9*9?9*9,25.6,22.0,78,98090,0,1407,420,0,0,0,0,0,0,0,180,1.4,8,8,777.7,77777,9,999999999,0,0.0000,0,0,999.000,0.0,99.0
2010,2,5,3,0,?9?9?9?9E0?9?9?9?9*9?9?9?9?9*9?9*9*9?9*_?9?9*9?9*9,25.4,22.0,78,98090,0,1407,418,0,0,0,0,0,0,0,180,1.3,8,8,777.7,77777,9,999999999,0,0.0000,0,0,999.000,0.0,99.0
2010,2,5,4,0,?9?9?9?9E0?9?9?9?9*9?9?9?9?9*9?9*9*9?9*_?9?9*9?9*9,25.1,21.9,79,98090,0,1406,417,0,0,0,0,0,0,0,180,1.4,8,8,777.7,77777,9,999999999,0,0.0000,0,0,999.000,0.2,99.0
2010,2,5,5,0,?9?9?9?9E0?9?9?9?9*9?9?9?9?9*9?9*9*9?9*_?9?9*9?9*9,24.9,21.9,80,98090,0,1406,416,0,0,0,0,0,0,0,180,1.6,8,8,777.7,77777,9,999999999,0,0.0000,0,0,999.000,0.0,99.0
2010,2,5,6,0,?9?9?9?9E0?9?9?9?9*9?9?9?9?9*9?9*9*9?9*_?9?9*9?9*9,24.7,21.9,77,98090,0,1406,415,0,0,0,0,0,0,0,180,1.4,8,8,777.7,77777,9,999999999,0,0.0000,0,0,999.000,0.0,99.0
2010,2,5,7,0,?9?9?9?9E0?9?9?9?9*9?9?9?9?9*9?9*9*9?9*_?9?9*9?9*9,24.5,21.9,77,98090,302,1406,414,40,0,40,4847,0,4443,60,180,1.7,8,8,777.7,77777,9,999999999,0,0.0000,0,0,999.000,0.0,99.0
2010,2,5,8,0,?9?9?9?9E0?9?9?9?9*9?9?9?9?9*9?9*9*9?9*_?9?9*9?9*9,26.3,22.1,72,98090,619,1406,406,254,148,189,30478,14013,20809,137,180,2.3,4,4,777.7,77777,9,999999999,0,0.0000,0,0,999.000,0.0,99.0
2010,2,5,9,0,?9?9?9?9E0?9?9?9?9*9?9?9?9?9*9?9*9*9?9*_?9?9*9?9*9,27.5,22.2,68,98090,904,1406,413,464,244,307,55656,23198,33767,152,180,2.8,4,4,777.7,77777,9,999999999,0,0.0000,0,0,999.000,0.0,99.0
2010,2,5,10,0,?9?9?9?9E0?9?9?9?9*9?9?9?9?9*9?9*9*9?9*_?9?9*9?9*9,28.9,22.4,65,98090,1137,1406,400,712,487,318,85399,46287,34967,125,180,3.9,0,0,777.7,77777,9,999999999,0,0.0000,0,0,999.000,0.0,99.0
2010,2,5,11,0,?9?9?9?9E0?9?9?9?9*9?9?9?9?9*9?9*9*9?9*_?9?9*9?9*9,30.0,22.5,62,98090,1302,1406,419,813,491,358,97529,46672,39364,123,180,4.9,2,2,777.7,77777,9,999999999,0,0.0000,0,0,999.000,0.0,99.0
2010,2,5,12,0,?9?9?9?9E0?9?9?9?9*9?9?9?9?9*9?9*9*9?9*_?9?9*9?9*9,30.9,22.6,60,98090,1388,1406,424,905,526,385,108544,49944,42400,124,180,5.9,2,2,777.7,77777,9,999999999,0,0.0000,0,0,999.000,0.0,99.0
2010,2,5,13,0,?9?9?9?9E0?9?9?9?9*9?9?9?9?9*9?9*9*9?9*_?9?9*9?9*9,31.5,22.7,59,98090,1390,1406,432,889,507,388,106651,48146,42667,125,180,6.1,3,3,777.7,77777,9,999999999,0,0.0000,0,0,999.000,0.0,99.0
2010,2,5,14,0,?9?9?9?9E0?9?9?9?9*9?9?9?9?9*9?9*9*9?9*_?9?9*9?9*9,31.9,22.7,58,98090,1306,1406,434,864,553,351,103718,52531,38585,120,180,6.4,3,3,777.7,77777,9,999999999,0,0.0000,0,0,999.000,0.0,99.0
2010,2,5,15,0,?9?9?9?9E0?9?9?9?9*9?9?9?9?9*9?9*9*9?9*_?9?9*9?9*9,32.0,22.7,58,98090,1143,1406,446,665,354,377,79853,33669,41518,148,180,6.3,6,6,777.7,77777,9,999999999,0,0.0000,0,0,999.000,0.0,99.0
2010,2,5,16,0,?9?9?9?9E0?9?9?9?9*9?9?9?9?9*9?9*9*9?9*_?9?9*9?9*9,31.8,22.7,58,98090,911,1406,444,516,373,274,61872,35414,30148,135,180,5.7,6,6,777.7,77777,9,999999999,0,0.0000,0,0,999.000,0.0,99.0
2010,2,5,17,0,?9?9?9?9E0?9?9?9?9*9?9?9?9?9*9?9*9*9?9*_?9?9*9?9*9,31.3,22.6,63,98090,628,1406,446,337,419,150,40384,39768,16489,107,180,5.2,7,7,777.7,77777,9,999999999,0,0.0000,0,0,999.000,0.0,99.0
2010,2,5,18,0,?9?9?9?9E0?9?9?9?9*9?9?9?9?9*9?9*9*9?9*_?9?9*9?9*9,30.5,22.5,61,98090,311,1406,449,153,405,63,18318,38513,6976,92,180,4.0,8,8,777.7,77777,9,999999999,0,0.0000,0,0,999.000,0.0,99.0
2010,2,5,19,0,?9?9?9?9E0?9?9?9?9*9?9?9?9?9*9?9*9*9?9*_?9?9*9?9*9,29.7,22.5,63,98090,0,1406,444,26,0,0,3108,0,0,0,180,3.4,8,8,777.7,77777,9,999999999,0,0.0000,0,0,999.000,0.0,99.0
2010,2,5,20,0,?9?9?9?9E0?9?9?9?9*9?9?9?9?9*9?9*9*9?9*_?9?9*9?9*9,28.7,22.3,69,98090,0,1406,438,0,0,0,0,0,0,0,180,3.0,8,8,777.7,77777,9,999999999,0,0.0000,0,0,999.000,0.1,99.0
2010,2,5,21,0,?9?9?9?9E0?9?9?9?9*9?9?9?9?9*9?9*9*9?9*_?9?9*9?9*9,27.7,22.2,72,98090,0,1406,432,0,0,0,0,0,0,0,180,1.4,8,8,777.7,77777,9,999999999,0,0.0000,0,0,999.000,0.2,99.0
2010,2,5,22,0,?9?9?9?9E0?9?9?9?9*9?9?9?9?9*9?9*9*9?9*_?9?9*9?9*9,26.7,22.1,74,98090,0,1406,426,0,0,0,0,0,0,0,180,1.3,8,8,777.7,77777,9,999999999,0,0.0000,0,0,999.000,0.5,99.0
2010,2,5,23,0,?9?9?9?9E0?9?9?9?9*9?9?9?9?9*9?9*9*9?9*_?9?9*9?9*9,25.7,22.0,85,98090,0,1406,420,0,0,0,0,0,0,0,180,1.4,8,8,777.7,77777,9,999999999,6,0.0000,0,0,999.000,6.8,99.0
2010,2,5,24,0,?9?9?9?9E0?9?9?9?9*9?9?9?9?9*9?9*9*9?9*_?9?9*9?9*9,24.7,21.8,84,98090,0,1406,415,0,0,0,0,0,0,0,180,8.6,8,8,777.7,77777,9,999999999,0,0.0000,0,0,999.000,0.7,99.0
2010,2,6,1,0,?9?9?9?9E0?9?9?9?9*9?9?9?9?9*9?9*9*9?9*_?9?9*9?9*9,24.2,21.7,91,98090,0,1406,412,0,0,0,0,0,0,0,180,7.0,8,8,777.7,77777,9,999999999,2,0.0000,0,0,999.000,2.0,99.0
2010,2,6,2,0,?9?9?9?9E0?9?9?9?9*9?9?9?9?9*9?9*9*9?9*_?9?9*9?9*9,23.7,21.7,89,98090,0,1406,409,0,0,0,0,0,0,0,180,6.4,8,8,777.7,77777,9,999999999,0,0.0000,0,0,999.000,0.2,99.0
2010,2,6,3,0,?9?9?9?9E0?9?9?9?9*9?9?9?9?9*9?9*9*9?9*_?9?9*9?9*9,23.2,21.6,91,98090,0,1406,406,0,0,0,0,0,0,0,180,5.5,8,8,777.7,77777,9,999999999,0,0.0000,0,0,999.000,0.0,99.0
2010,2,6,4,0,?9?9?9?9E0?9?9?9?9*9?9?9?9?9*9?9*9*9?9*_?9?9*9?9*9,22.7,21.6,93,98090,0,1406,403,0,0,0,0,0,0,0,180,4.7,8,8,777.7,77777,9,999999999,0,0.0000,0,0,999.000,0.0,99.0
2010,2,6,5,0,?9?9?9?9E0?9?9?9?9*9?9?9?9?9*9?9*9*9?9*_?9?9*9?9*9,22.3,21.5,95,98090,0,1406,401,0,0,0,0,0,0,0,180,4.5,8,8,777.7,77777,9,999999999,0,0.0000,0,0,999.000,0.0,99.0
2010,2,6,6,0,?9?9?9?9E0?9?9?9?9*9?9?9?9?9*9?9*9*9?9*_?9?9*9?9*9,21.9,21.5,97,98090,0,1406,399,0,0,0,0,0,0,0,180,4.5,8,8,777.7,77777,9,999999999,0,0.0000,0,0,999.000,0.5,99.0
2010,2,6,7,0,?9?9?9?9E0?9?9?9?9*9?9?9?9?9*9?9*9*9?9*_?9?9*9?9*9,21.6,21.4,98,98090,299,1406,397,22,0,22,2614,0,2396,33,180,4.5,8,8,777.7,77777,9,999999999,0,0.0000,0,0,999.000,0.6,99.0
2010,2,6,8,0,?9?9?9?9E0?9?9?9?9*9?9?9?9?9*9?9*9*9?9*_?9?9*9?9*9,24.6,21.8,85,98090,616,1406,414,166,16,159,19865,1476,17461,115,180,4.5,8,8,777.7,77777,9,999999999,0,0.0000,0,0,999.000,0.1,99.0
2010,2,6,9,0,?9?9?9?9E0?9?9?9?9*9?9?9?9?9*9?9*9*9?9*_?9?9*9?9*9,26.0,21.9,80,98090,901,1406,422,215,8,210,25751,740,23056,104,180,4.5,8,8,777.7,77777,9,999999999,0,0.0000,0,0,999.000,0.4,99.0
2010,2,6,10,0,?9?9?9?9E0?9?9?9?9*9?9?9?9?9*9?9*9*9?9*_?9?9*9?9*9,27.5,22.1,74,98090,1135,1406,431,326,18,311,39065,1723,34199,123,180,4.5,8,8,777.7,77777,9,999999999,0,0.0000,0,0,999.000,0.2,99.0
2010,2,6,11,0,?9?9?9?9E0?9?9?9?9*9?9?9?9?9*9?9*9*9?9*_?9?9*9?9*9,28.6,22.2,70,98090,1301,1406,437,352,22,331,42247,2127,36448,114,180,4.5,8,8,777.7,77777,9,999999999,0,0.0000,0,0,999.000,0.9,99.0
2010,2,6,12,0,?9?9?9?9E0?9?9?9?9*9?9?9?9?9*9?9*9*9?9*_?9?9*9?9*9,29.2,22.3,78,98090,1387,1406,441,324,3,322,38918,253,35386,104,180,4.5,8,8,777.7,77777,9,999999999,5,0.0000,0,0,999.000,5.8,99.0
2010,2,6,13,0,?9?9?9?9E0?9?9?9?9*9?9?9?9?9*9?9*9*9?9*_?9?9*9?9*9,29.4,22.3,72,98090,1389,1406,442,264,4,259,31633,413,28525,84,180,4.5,8,8,777.7,77777,9,999999999,1,0.0000,0,0,999.000,1.6,99.0
2010,2,6,14,0,?9?9?9?9E0?9?9?9?9*9?9?9?9?9*9?9*9*9?9*_?9?9*9?9*9,29.5,22.3,67,98090,1305,1406,443,277,2,275,33194,208,30204,94,180,4.5,8,8,777.7,77777,9,999999999,0,0.0000,0,0,999.000,0.2,99.0
2010,2,6,15,0,?9?9?9?9E0?9?9?9?9*9?9?9?9?9*9?9*9*9?9*_?9?9*9?9*9,29.8,22.3,71,98090,1142,1406,445,337,24,317,40381,2289,34864,124,180,4.8,8,8,777.7,77777,9,999999999,1,0.0000,0,0,999.000,1.0,99.0
2010,2,6,16,0,?9?9?9?9E0?9?9?9?9*9?9?9?9?9*9?9*9*9?9*_?9?9*9?9*9,29.6,22.3,67,98090,910,1406,443,214,8,209,25717,717,23037,103,180,4.8,8,8,777.7,77777,9,999999999,0,0.0000,0,0,999.000,0.1,99.0
2010,2,6,17,0,?9?9?9?9E0?9?9?9?9*9?9?9?9?9*9?9*9*9?9*_?9?9*9?9*9,29.2,22.3,64,98090,626,1406,441,169,15,163,20300,1412,17882,116,180,5.0,8,8,777.7,77777,9,999999999,0,0.0000,0,0,999.000,0.0,99.0
2010,2,6,18,0,?9?9?9?9E0?9?9?9?9*9?9?9?9?9*9?9*9*9?9*_?9?9*9?9*9,28.5,22.2,71,98090,309,1406,437,85,8,83,10225,797,9171,121,180,4.8,8,8,777.7,77777,9,999999999,0,0.0000,0,0,999.000,0.1,99.0
2010,2,6,19,0,?9?9?9?9E0?9?9?9?9*9?9?9?9?9*9?9*9*9?9*_?9?9*9?9*9,27.6,22.1,74,98090,0,1406,431,10,0,0,1211,0,0,0,180,4.5,8,8,777.7,77777,9,999999999,0,0.0000,0,0,999.000,0.3,99.0
2010,2,6,20,0,?9?9?9?9E0?9?9?9?9*9?9?9?9?9*9?9*9*9?9*_?9?9*9?9*9,27.2,22.0,84,98090,0,1406,429,0,0,0,0,0,0,0,180,4.7,8,8,777.7,77777,9,999999999,61,0.0000,0,0,999.000,61.9,99.0
2010,2,6,21,0,?9?9?9?9E0?9?9?9?9*9?9?9?9?9*9?9*9*9?9*_?9?9*9?9*9,26.8,22.0,81,98090,0,1406,426,0,0,0,0,0,0,0,180,4.8,8,8,777.7,77777,9,999999999,2,0.0000,0,0,999.000,2.6,99.0
2010,2,6,22,0,?9?9?9?9E0?9?9?9?9*9?9?9?9?9*9?9*9*9?9*_?9?9*9?9*9,26.4,22.0,83,98090,0,1406,424,0,0,0,0,0,0,0,180,4.5,8,8,777.7,77777,9,999999999,3,0.0000,0,0,999.000,3.6,99.0
2010,2,6,23,0,?9?9?9?9E0?9?9?9?9*9?9?9?9?9*9?9*9*9?9*_?9?9*9?9*9,25.9,21.9,84,98090,0,1406,422,0,0,0,0,0,0,0,180,4.5,8,8,777.7,77777,9,999999999,1,0.0000,0,0,999.000,1.3,99.0
2010,2,6,24,0,?9?9?9?9E0?9?9?9?9*9?9?9?9?9*9?9*9*9?9*_?9?9*9?9*9,25.5,22.4,78,98090,0,1406,420,0,0,0,0,0,0,0,180,2.0,8,8,777.7,77777,9,999999999,0,0.0000,0,0,999.000,0.0,99.0
2010,2,7,1,0,?9?9?9?9E0?9?9?9?9*9?9?9?9?9*9?9*9*9?9*_?9?9*9?9*9,25.3,22.4,82,98090,0,1406,419,0,0,0,0,0,0,0,180,2.0,8,8,777.7,77777,9,999999999,0,0.0000,0,0,999.000,0.0,99.0
2010,2,7,2,0,?9?9?9?9E0?9?9?9?9*9?9?9?9?9*9?9*9*9?9*_?9?9*9?9*9,25.1,22.4,83,98090,0,1406,418,0,0,0,0,0,0,0,180,2.0,8,8,777.7,77777,9,999999999,0,0.0000,0,0,999.000,0.1,99.0
2010,2,7,3,0,?9?9?9?9E0?9?9?9?9*9?9?9?9?9*9?9*9*9?9*_?9?9*9?9*9,24.9,22.4,83,98090,0,1406,417,0,0,0,0,0,0,0,180,2.0,8,8,777.7,77777,9,999999999,0,0.0000,0,0,999.000,0.1,99.0
2010,2,7,4,0,?9?9?9?9E0?9?9?9?9*9?9?9?9?9*9?9*9*9?9*_?9?9*9?9*9,24.7,22.4,84,98090,0,1405,415,0,0,0,0,0,0,0,180,2.0,8,8,777.7,77777,9,999999999,0,0.0000,0,0,999.000,0.1,99.0
2010,2,7,5,0,?9?9?9?9E0?9?9?9?9*9?9?9?9?9*9?9*9*9?9*_?9?9*9?9*9,24.5,22.4,85,98090,0,1405,414,0,0,0,0,0,0,0,180,2.0,8,8,777.7,77777,9,999999999,0,0.0000,0,0,999.000,0.0,99.0
2010,2,7,6,0,?9?9?9?9E0?9?9?9?9*9?9?9?9?9*9?9*9*9?9*_?9?9*9?9*9,24.4,22.4,89,98090,0,1405,414,0,0,0,0,0,0,0,180,2.0,8,8,777.7,77777,9,999999999,3,0.0000,0,0,999.000,3.4,99.0
2010,2,7,7,0,?9?9?9?9E0?9?9?9?9*9?9?9?9?9*9?9*9*9?9*_?9?9*9?9*9,24.3,22.4,86,98090,296,1405,413,18,0,18,2105,0,1929,27,180,2.0,8,8,777.7,77777,9,999999999,0,0.0000,0,0,999.000,0.2,99.0
2010,2,7,8,0,?9?9?9?9E0?9?9?9?9*9?9?9?9?9*9?9*9*9?9*_?9?9*9?9*9,25.2,22.4,82,98090,614,1405,418,176,25,165,21067,2372,18114,120,180,2.0,8,8,777.7,77777,9,999999999,0,0.0000,0,0,999.000,0.0,99.0
2010,2,7,9,0,?9?9?9?9E0?9?9?9?9*9?9?9?9?9*9?9*9*9?9*_?9?9*9?9*9,26.1,22.4,76,98090,899,1405,417,356,87,300,42724,8270,33038,149,180,2.0,7,7,777.7,77777,9,999999999,0,0.0000,0,0,999.000,0.0,99.0
2010,2,7,10,0,?9?9?9?9E0?9?9?9?9*9?9?9?9?9*9?9*9*9?9*_?9?9*9?9*9,27.0,22.4,73,98090,1133,1405,417,517,146,399,61988,13904,43843,157,180,2.0,6,6,777.7,77777,9,999999999,0,0.0000,0,0,999.000,0.0,99.0
2010,2,7,11,0,?9?9?9?9E0?9?9?9?9*9?9?9?9?9*9?9*9*9?9*_?9?9*9?9*9,27.7,22.4,70,98090,1299,1405,421,641,105,545,76974,9929,59931,188,180,2.2,6,6,777.7,77777,9,999999999,0,0.0000,0,0,999.000,0.0,99.0
2010,2,7,12,0,?9?9?9?9E0?9?9?9?9*9?9?9?9?9*9?9*9*9?9*_?9?9*9?9*9,28.4,22.4,69,98090,1386,1405,424,721,122,601,86485,11570,66066,194,180,2.5,6,6,777.7,77777,9,999999999,0,0.0000,0,0,999.000,0.0,99.0
2010,2,7,13,0,?9?9?9?9E0?9?9?9?9*9?9?9?9?9*9?9*9*9?9*_?9?9*9?9*9,28.9,22.4,67,98090,1387,1405,427,748,141,609,89813,13387,67024,196,180,3.6,6,6,777.7,77777,9,999999999,0,0.0000,0,0,999.000,0.0,99.0
2010,2,7,14,0,?9?9?9?9E0?9?9?9?9*9?9?9?9?9*9?9*9*9?9*_?9?9*9?9*9,29.2,22.4,66,98090,1304,1405,429,723,165,570,86713,15678,62647,195,180,4.2,6,6,777.7,77777,9,999999999,0,0.0000,0,0,999.000,0.0,99.0
2010,2,7,15,0,?9?9?9?9E0?9?9?9?9*9?9?9?9?9*9?9*9*9?9*_?9?9*9?9*9,29.4,22.4,66,98090,1140,1405,430,645,330,378,77411,31319,41539,148,180,4.4,6,6,777.7,77777,9,999999999,0,0.0000,0,0,999.000,0.0,99.0
2010,2,7,16,0,?9?9?9?9E0?9?9?9?9*9?9?9?9?9*9?9*9*9?9*_?9?9*9?9*9,29.4,22.4,66,98090,908,1405,430,522,393,268,62596,37288,29480,132,180,4.9,6,6,777.7,77777,9,999999999,0,0.0000,0,0,999.000,0.0,99.0
2010,2,7,17,0,?9?9?9?9E0?9?9?9?9*9?9?9?9?9*9?9*9*9?9*_?9?9*9?9*9,29.2,22.4,66,98090,624,1405,434,362,481,149,43442,45681,16361,107,180,4.4,7,7,777.7,77777,9,999999999,0,0.0000,0,0,999.000,0.0,99.0
2010,2,7,18,0,?9?9?9?9E0?9?9?9?9*9?9?9?9?9*9?9*9*9?9*_?9?9*9?9*9,28.7,22.4,68,98090,307,1405,438,182,590,53,21805,56085,5884,78,180,3.8,8,8,777.7,77777,9,999999999,0,0.0000,0,0,999.000,0.0,99.0
2010,2,7,19,0,?9?9?9?9E0?9?9?9?9*9?9?9?9?9*9?9*9*9?9*_?9?9*9?9*9,28.1,22.4,69,98090,0,1405,435,21,0,0,2504,0,0,0,180,2.6,8,8,777.7,77777,9,999999999,0,0.0000,0,0,999.000,0.0,99.0
2010,2,7,20,0,?9?9?9?9E0?9?9?9?9*9?9?9?9?9*9?9*9*9?9*_?9?9*9?9*9,27.6,22.4,71,98090,0,1405,432,0,0,0,0,0,0,0,180,2.1,8,8,777.7,77777,9,999999999,0,0.0000,0,0,999.000,0.0,99.0
2010,2,7,21,0,?9?9?9?9E0?9?9?9?9*9?9?9?9?9*9?9*9*9?9*_?9?9*9?9*9,27.1,22.4,76,98090,0,1405,429,0,0,0,0,0,0,0,180,2.0,8,8,777.7,77777,9,999999999,0,0.0000,0,0,999.000,0.0,99.0
2010,2,7,22,0,?9?9?9?9E0?9?9?9?9*9?9?9?9?9*9?9*9*9?9*_?9?9*9?9*9,26.5,22.4,78,98090,0,1405,426,0,0,0,0,0,0,0,180,2.0,8,8,777.7,77777,9,999999999,0,0.0000,0,0,999.000,0.0,99.0
2010,2,7,23,0,?9?9?9?9E0?9?9?9?9*9?9?9?9?9*9?9*9*9?9*_?9?9*9?9*9,26.0,22.4,76,98090,0,1405,423,0,0,0,0,0,0,0,180,2.0,8,8,777.7,77777,9,999999999,0,0.0000,0,0,999.000,0.0,99.0
2010,2,7,24,0,?9?9?9?9E0?9?9?9?9*9?9?9?9?9*9?9*9*9?9*_?9?9*9?9*9,25.5,22.0,81,98090,0,1405,419,0,0,0,0,0,0,0,180,1.4,8,8,777.7,77777,9,999999999,0,0.0000,0,0,999.000,0.0,99.0
2010,2,8,1,0,?9?9?9?9E0?9?9?9?9*9?9?9?9?9*9?9*9*9?9*_?9?9*9?9*9,25.2,22.1,82,98090,0,1405,418,0,0,0,0,0,0,0,180,1.4,8,8,777.7,77777,9,999999999,0,0.0000,0,0,999.000,0.0,99.0
2010,2,8,2,0,?9?9?9?9E0?9?9?9?9*9?9?9?9?9*9?9*9*9?9*_?9?9*9?9*9,25.0,22.1,84,98090,0,1405,416,0,0,0,0,0,0,0,180,1.4,8,8,777.7,77777,9,999999999,0,0.0000,0,0,999.000,0.0,99.0
2010,2,8,3,0,?9?9?9?9E0?9?9?9?9*9?9?9?9?9*9?9*9*9?9*_?9?9*9?9*9,24.7,22.2,85,98090,0,1405,415,0,0,0,0,0,0,0,180,1.4,8,8,777.7,77777,9,999999999,0,0.0000,0,0,999.000,0.0,99.0
2010,2,8,4,0,?9?9?9?9E0?9?9?9?9*9?9?9?9?9*9?9*9*9?9*_?9?9*9?9*9,24.4,22.2,87,98090,0,1405,414,0,0,0,0,0,0,0,180,1.4,8,8,777.7,77777,9,999999999,0,0.0000,0,0,999.000,0.0,99.0
2010,2,8,5,0,?9?9?9?9E0?9?9?9?9*9?9?9?9?9*9?9*9*9?9*_?9?9*9?9*9,24.2,22.3,88,98090,0,1405,412,0,0,0,0,0,0,0,180,1.4,8,8,777.7,77777,9,999999999,0,0.0000,0,0,999.000,0.0,99.0
2010,2,8,6,0,?9?9?9?9E0?9?9?9?9*9?9?9?9?9*9?9*9*9?9*_?9?9*9?9*9,24.0,22.3,90,98090,0,1405,411,0,0,0,0,0,0,0,180,1.4,8,8,777.7,77777,9,999999999,0,0.0000,0,0,999.000,0.0,99.0
2010,2,8,7,0,?9?9?9?9E0?9?9?9?9*9?9?9?9?9*9?9*9*9?9*_?9?9*9?9*9,23.8,22.3,91,98090,293,1405,410,22,0,22,2664,0,2442,34,180,1.4,8,8,777.7,77777,9,999999999,0,0.0000,0,0,999.000,0.0,99.0
2010,2,8,8,0,?9?9?9?9E0?9?9?9?9*9?9?9?9?9*9?9*9*9?9*_?9?9*9?9*9,25.1,22.1,83,98090,611,1405,402,239,120,186,28628,11405,20505,137,180,1.4,5,5,777.7,77777,9,999999999,0,0.0000,0,0,999.000,0.0,99.0
2010,2,8,9,0,?9?9?9?9E0?9?9?9?9*9?9?9?9?9*9?9*9*9?9*_?9?9*9?9*9,26.2,21.9,76,98090,897,1405,402,475,276,299,57043,26199,32923,149,180,1.4,3,3,777.7,77777,9,999999999,0,0.0000,0,0,999.000,0.0,99.0
2010,2,8,10,0,?9?9?9?9E0?9?9?9?9*9?9?9?9?9*9?9*9*9?9*_?9?9*9?9*9,27.4,21.6,71,98090,1131,1405,391,695,447,335,83414,42462,36872,133,180,2.2,0,0,777.7,77777,9,999999999,0,0.0000,0,0,999.000,0.0,99.0
2010,2,8,11,0,?9?9?9?9E0?9?9?9?9*9?9?9?9?9*9?9*9*9?9*_?9?9*9?9*9,28.3,21.5,66,98090,1298,1405,396,850,561,331,101976,53330,36441,114,180,2.8,0,0,777.7,77777,9,999999999,0,0.0000,0,0,999.000,0.0,99.0
2010,2,8,12,0,?9?9?9?9E0?9?9?9?9*9?9?9?9?9*9?9*9*9?9*_?9?9*9?9*9,29.2,21.3,62,98090,1384,1405,400,960,599,370,115198,56903,40662,119,180,3.6,0,0,777.7,77777,9,999999999,0,0.0000,0,0,999.000,0.0,99.0
2010,2,8,13,0,?9?9?9?9E0?9?9?9?9*9?9?9?9?9*9?9*9*9?9*_?9?9*9?9*9,29.8,21.2,59,98090,1386,1405,403,978,587,398,117336,55782,43827,129,180,4.5,0,0,777.7,77777,9,999999999,0,0.0000,0,0,999.000,0.0,99.0
2010,2,8,14,0,?9?9?9?9E0?9?9?9?9*9?9?9?9?9*9?9*9*9?9*_?9?9*9?9*9,30.2,21.1,58,98090,1302,1405,405,952,738,268,114245,70148,29429,92,180,5.1,0,0,777.7,77777,9,999999999,0,0.0000,0,0,999.000,0.0,99.0
2010,2,8,15,0,?9?9?9?9E0?9?9?9?9*9?9?9?9?9*9?9*9*9?9*_?9?9*9?9*9,30.4,21.0,57,98090,1139,1405,406,862,874,153,103393,83021,16860,60,180,5.3,0,0,777.7,77777,9,999999999,0,0.0000,0,0,999.000,0.0,99.0
2010,2,8,16,0,?9?9?9?9E0?9?9?9?9*9?9?9?9?9*9?9*9*9?9*_?9?9*9?9*9,30.5,21.0,57,98090,907,1405,406,695,798,180,83444,75851,19823,89,180,5.0,0,0,777.7,77777,9,999999999,0,0.0000,0,0,999.000,0.0,99.0
2010,2,8,17,0,?9?9?9?9E0?9?9?9?9*9?9?9?9?9*9?9*9*9?9*_?9?9*9?9*9,30.2,21.1,58,98090,622,1405,422,470,771,129,56428,73239,14217,93,180,4.9,3,3,777.7,77777,9,999999999,0,0.0000,0,0,999.000,0.0,99.0
2010,2,8,18,0,?9?9?9?9E0?9?9?9?9*9?9?9?9?9*9?9*9*9?9*_?9?9*9?9*9,29.6,21.2,60,98090,305,1405,430,239,435,145,28658,41338,15951,214,180,4.5,6,6,777.7,77777,9,999999999,0,0.0000,0,0,999.000,0.0,99.0
2010,2,8,19,0,?9?9?9?9E0?9?9?9?9*9?9?9?9?9*9?9*9*9?9*_?9?9*9?9*9,28.8,21.4,64,98090,0,1405,437,26,0,0,3152,0,0,0,180,3.5,8,8,777.7,77777,9,999999999,0,0.0000,0,0,999.000,0.0,99.0
2010,2,8,20,0,?9?9?9?9E0?9?9?9?9*9?9?9?9?9*9?9*9*9?9*_?9?9*9?9*9,28.2,21.5,66,98090,0,1405,427,0,0,0,0,0,0,0,180,2.7,7,7,777.7,77777,9,999999999,0,0.0000,0,0,999.000,0.0,99.0
2010,2,8,21,0,?9?9?9?9E0?9?9?9?9*9?9?9?9?9*9?9*9*9?9*_?9?9*9?9*9,27.6,21.6,69,98090,0,1405,424,0,0,0,0,0,0,0,180,2.0,7,7,777.7,77777,9,999999999,0,0.0000,0,0,999.000,0.0,99.0
2010,2,8,22,0,?9?9?9?9E0?9?9?9?9*9?9?9?9?9*9?9*9*9?9*_?9?9*9?9*9,27.0,21.7,72,98090,0,1405,416,0,0,0,0,0,0,0,180,1.4,6,6,777.7,77777,9,999999999,0,0.0000,0,0,999.000,0.0,99.0
2010,2,8,23,0,?9?9?9?9E0?9?9?9?9*9?9?9?9?9*9?9*9*9?9*_?9?9*9?9*9,26.4,21.8,75,98090,0,1405,409,0,0,0,0,0,0,0,180,1.4,5,5,777.7,77777,9,999999999,0,0.0000,0,0,999.000,0.0,99.0
2010,2,8,24,0,?9?9?9?9E0?9?9?9?9*9?9?9?9?9*9?9*9*9?9*_?9?9*9?9*9,25.8,22.2,80,98090,0,1405,406,0,0,0,0,0,0,0,180,1.7,5,5,777.7,77777,9,999999999,0,0.0000,0,0,999.000,0.0,99.0
2010,2,9,1,0,?9?9?9?9E0?9?9?9?9*9?9?9?9?9*9?9*9*9?9*_?9?9*9?9*9,25.5,22.2,81,98090,0,1405,402,0,0,0,0,0,0,0,180,1.7,4,4,777.7,77777,9,999999999,0,0.0000,0,0,999.000,0.0,99.0
2010,2,9,2,0,?9?9?9?9E0?9?9?9?9*9?9?9?9?9*9?9*9*9?9*_?9?9*9?9*9,25.2,22.1,82,98090,0,1405,397,0,0,0,0,0,0,0,180,1.7,3,3,777.7,77777,9,999999999,0,0.0000,0,0,999.000,0.0,99.0
2010,2,9,3,0,?9?9?9?9E0?9?9?9?9*9?9?9?9?9*9?9*9*9?9*_?9?9*9?9*9,24.9,22.1,84,98090,0,1405,395,0,0,0,0,0,0,0,180,1.7,3,3,777.7,77777,9,999999999,0,0.0000,0,0,999.000,0.0,99.0
2010,2,9,4,0,?9?9?9?9E0?9?9?9?9*9?9?9?9?9*9?9*9*9?9*_?9?9*9?9*9,24.6,22.0,85,98090,0,1404,390,0,0,0,0,0,0,0,180,1.7,2,2,777.7,77777,9,999999999,0,0.0000,0,0,999.000,0.0,99.0
2010,2,9,5,0,?9?9?9?9E0?9?9?9?9*9?9?9?9?9*9?9*9*9?9*_?9?9*9?9*9,24.4,22.0,86,98090,0,1404,383,0,0,0,0,0,0,0,180,1.7,1,1,777.7,77777,9,999999999,0,0.0000,0,0,999.000,0.0,99.0
2010,2,9,6,0,?9?9?9?9E0?9?9?9?9*9?9?9?9?9*9?9*9*9?9*_?9?9*9?9*9,24.2,21.9,87,98090,0,1404,382,0,0,0,0,0,0,0,180,1.7,1,1,777.7,77777,9,999999999,0,0.0000,0,0,999.000,0.0,99.0
2010,2,9,7,0,?9?9?9?9E0?9?9?9?9*9?9?9?9?9*9?9*9*9?9*_?9?9*9?9*9,24.0,21.9,88,98090,291,1404,374,67,0,67,7987,0,7322,103,180,1.7,0,0,777.7,77777,9,999999999,0,0.0000,0,0,999.000,0.0,99.0
2010,2,9,8,0,?9?9?9?9E0?9?9?9?9*9?9?9?9?9*9?9*9*9?9*_?9?9*9?9*9,25.9,22.2,80,98090,609,1404,384,324,331,181,38928,31468,19909,133,180,1.7,0,0,777.7,77777,9,999999999,0,0.0000,0,0,999.000,0.0,99.0
2010,2,9,9,0,?9?9?9?9E0?9?9?9?9*9?9?9?9?9*9?9*9*9?9*_?9?9*9?9*9,27.2,22.5,75,98090,895,1404,391,582,597,202,69862,56717,22197,101,180,1.7,0,0,777.7,77777,9,999999999,0,0.0000,0,0,999.000,0.0,99.0
2010,2,9,10,0,?9?9?9?9E0?9?9?9?9*9?9?9?9?9*9?9*9*9?9*_?9?9*9?9*9,28.1,22.6,72,98090,1130,1404,396,696,454,331,83533,43154,36385,131,180,2.1,0,0,777.7,77777,9,999999999,0,0.0000,0,0,999.000,0.0,99.0
2010,2,9,11,0,?9?9?9?9E0?9?9?9?9*9?9?9?9?9*9?9*9*9?9*_?9?9*9?9*9,28.8,22.7,69,98090,1296,1404,420,763,352,437,91511,33480,48109,151,180,3.1,4,4,777.7,77777,9,999999999,0,0.0000,0,0,999.000,0.0,99.0
2010,2,9,12,0,?9?9?9?9E0?9?9?9?9*9?9?9?9?9*9?9*9*9?9*_?9?9*9?9*9,29.1,22.8,68,98090,1383,1404,434,659,142,520,79129,13447,57200,168,180,4.5,7,7,777.7,77777,9,999999999,0,0.0000,0,0,999.000,0.0,99.0
2010,2,9,13,0,?9?9?9?9E0?9?9?9?9*9?9?9?9?9*9?9*9*9?9*_?9?9*9?9*9,29.5,22.8,67,98090,1385,1404,428,802,267,539,96252,25386,59246,174,180,4.8,5,5,777.7,77777,9,999999999,0,0.0000,0,0,999.000,0.0,99.0
2010,2,9,14,0,?9?9?9?9E0?9?9?9?9*9?9?9?9?9*9?9*9*9?9*_?9?9*9?9*9,29.0,22.8,69,98090,1301,1404,440,302,47,259,36289,4457,28485,89,180,5.0,8,8,777.7,77777,9,999999999,0,0.0000,0,0,999.000,0.0,99.0
2010,2,9,15,0,?9?9?9?9E0?9?9?9?9*9?9?9?9?9*9?9*9*9?9*_?9?9*9?9*9,29.2,22.8,68,98090,1137,1404,430,659,332,390,79052,31579,42857,153,180,5.1,6,6,777.7,77777,9,999999999,0,0.0000,0,0,999.000,0.0,99.0
2010,2,9,16,0,?9?9?9?9E0?9?9?9?9*9?9?9?9?9*9?9*9*9?9*_?9?9*9?9*9,29.2,22.8,68,98090,905,1404,430,532,428,257,63856,40636,28225,127,180,4.5,6,6,777.7,77777,9,999999999,0,0.0000,0,0,999.000,0.0,99.0
2010,2,9,17,0,?9?9?9?9E0?9?9?9?9*9?9?9?9?9*9?9*9*9?9*_?9?9*9?9*9,29.0,22.7,69,98090,620,1404,433,368,521,139,44206,49452,15272,100,180,3.7,7,7,777.7,77777,9,999999999,0,0.0000,0,0,999.000,0.0,99.0
2010,2,9,18,0,?9?9?9?9E0?9?9?9?9*9?9?9?9?9*9?9*9*9?9*_?9?9*9?9*9,28.5,22.7,70,98090,302,1404,437,183,404,97,22018,38334,10687,145,180,3.3,8,8,777.7,77777,9,999999999,0,0.0000,0,0,999.000,0.0,99.0
2010,2,9,19,0,?9?9?9?9E0?9?9?9?9*9?9?9?9?9*9?9*9*9?9*_?9?9*9?9*9,27.9,22.6,72,98090,0,1404,433,20,0,0,2364,0,0,0,180,2.8,8,8,777.7,77777,9,999999999,0,0.0000,0,0,999.000,0.0,99.0
2010,2,9,20,0,?9?9?9?9E0?9?9?9?9*9?9?9?9?9*9?9*9*9?9*_?9?9*9?9*9,27.4,22.5,74,98090,0,1404,430,0,0,0,0,0,0,0,180,2.1,8,8,777.7,77777,9,999999999,0,0.0000,0,0,999.000,0.0,99.0
2010,2,9,21,0,?9?9?9?9E0?9?9?9?9*9?9?9?9?9*9?9*9*9?9*_?9?9*9?9*9,26.8,22.4,76,98090,0,1404,427,0,0,0,0,0,0,0,180,1.7,8,8,777.7,77777,9,999999999,0,0.0000,0,0,999.000,0.0,99.0
2010,2,9,22,0,?9?9?9?9E0?9?9?9?9*9?9?9?9?9*9?9*9*9?9*_?9?9*9?9*9,26.3,22.3,78,98090,0,1404,424,0,0,0,0,0,0,0,180,1.7,8,8,777.7,77777,9,999999999,0,0.0000,0,0,999.000,0.0,99.0
2010,2,9,23,0,?9?9?9?9E0?9?9?9?9*9?9?9?9?9*9?9*9*9?9*_?9?9*9?9*9,25.8,22.2,80,98090,0,1404,421,0,0,0,0,0,0,0,180,1.7,8,8,777.7,77777,9,999999999,0,0.0000,0,0,999.000,0.0,99.0
2010,2,9,24,0,?9?9?9?9E0?9?9?9?9*9?9?9?9?9*9?9*9*9?9*_?9?9*9?9*9,25.3,21.8,81,98090,0,1404,418,0,0,0,0,0,0,0,180,1.7,8,8,777.7,77777,9,999999999,0,0.0000,0,0,999.000,0.0,99.0
2010,2,10,1,0,?9?9?9?9E0?9?9?9?9*9?9?9?9?9*9?9*9*9?9*_?9?9*9?9*9,25.0,21.7,82,98090,0,1404,416,0,0,0,0,0,0,0,180,1.7,8,8,777.7,77777,9,999999999,0,0.0000,0,0,999.000,0.0,99.0
2010,2,10,2,0,?9?9?9?9E0?9?9?9?9*9?9?9?9?9*9?9*9*9?9*_?9?9*9?9*9,24.8,21.7,83,98090,0,1404,415,0,0,0,0,0,0,0,180,1.7,8,8,777.7,77777,9,999999999,0,0.0000,0,0,999.000,0.0,99.0
2010,2,10,3,0,?9?9?9?9E0?9?9?9?9*9?9?9?9?9*9?9*9*9?9*_?9?9*9?9*9,24.5,21.7,80,98090,0,1404,414,0,0,0,0,0,0,0,180,1.7,8,8,777.7,77777,9,999999999,0,0.0000,0,0,999.000,0.0,99.0
2010,2,10,4,0,?9?9?9?9E0?9?9?9?9*9?9?9?9?9*9?9*9*9?9*_?9?9*9?9*9,24.3,21.7,81,98090,0,1404,412,0,0,0,0,0,0,0,180,1.7,8,8,777.7,77777,9,999999999,0,0.0000,0,0,999.000,0.0,99.0
2010,2,10,5,0,?9?9?9?9E0?9?9?9?9*9?9?9?9?9*9?9*9*9?9*_?9?9*9?9*9,24.0,21.7,86,98090,0,1404,411,0,0,0,0,0,0,0,180,1.7,8,8,777.7,77777,9,999999999,0,0.0000,0,0,999.000,0.9,99.0
2010,2,10,6,0,?9?9?9?9E0?9?9?9?9*9?9?9?9?9*9?9*9*9?9*_?9?9*9?9*9,23.9,21.7,83,98090,0,1404,410,0,0,0,0,0,0,0,180,1.7,8,8,777.7,77777,9,999999999,0,0.0000,0,0,999.000,0.0,99.0
2010,2,10,7,0,?9?9?9?9E0?9?9?9?9*9?9?9?9?9*9?9*9*9?9*_?9?9*9?9*9,23.7,21.6,88,98090,288,1404,409,21,0,21,2536,0,2324,33,180,1.7,8,8,777.7,77777,9,999999999,0,0.0000,0,0,999.000,0.0,99.0
2010,2,10,8,0,?9?9?9?9E0?9?9?9?9*9?9?9?9?9*9?9*9*9?9*_?9?9*9?9*9,25.0,21.7,78,98090,606,1404,398,248,148,185,29795,14021,20309,136,180,1.7,4,4,777.7,77777,9,999999999,0,0.0000,0,0,999.000,0.0,99.0
2010,2,10,9,0,?9?9?9?9E0?9?9?9?9*9?9?9?9?9*9?9*9*9?9*_?9?9*9?9*9,26.2,21.8,74,98090,893,1404,385,507,358,280,60888,34034,30755,140,180,1.8,0,0,777.7,77777,9,999999999,0,0.0000,0,0,999.000,0.0,99.0
2010,2,10,10,0,?9?9?9?9E0?9?9?9?9*9?9?9?9?9*9?9*9*9?9*_?9?9*9?9*9,27.3,21.9,70,98090,1128,1404,391,744,571,285,89222,54264,31317,113,180,2.3,0,0,777.7,77777,9,999999999,0,0.0000,0,0,999.000,0.0,99.0
2010,2,10,11,0,?9?9?9?9E0?9?9?9?9*9?9?9?9?9*9?9*9*9?9*_?9?9*9?9*9,28.4,21.9,66,98090,1294,1404,397,925,650,325,110944,61751,35770,112,180,3.2,0,0,777.7,77777,9,999999999,0,0.0000,0,0,999.000,0.0,99.0
2010,2,10,12,0,?9?9?9?9E0?9?9?9?9*9?9?9?9?9*9?9*9*9?9*_?9?9*9?9*9,29.3,22.0,64,98090,1382,1404,401,1043,802,254,125168,76175,27930,82,180,3.8,0,0,777.7,77777,9,999999999,0,0.0000,0,0,999.000,0.0,99.0
2010,2,10,13,0,?9?9?9?9E0?9?9?9?9*9?9?9?9?9*9?9*9*9?9*_?9?9*9?9*9,29.9,22.0,62,98090,1383,1404,405,1075,903,186,129059,85766,20447,60,180,5.4,0,0,777.7,77777,9,999999999,0,0.0000,0,0,999.000,0.0,99.0
2010,2,10,14,0,?9?9?9?9E0?9?9?9?9*9?9?9?9?9*9?9*9*9?9*_?9?9*9?9*9,30.4,22.0,60,98090,1299,1404,407,1040,890,217,124849,84519,23864,75,180,5.6,0,0,777.7,77777,9,999999999,0,0.0000,0,0,999.000,0.0,99.0
2010,2,10,15,0,?9?9?9?9E0?9?9?9?9*9?9?9?9?9*9?9*9*9?9*_?9?9*9?9*9,30.6,22.1,60,98090,1136,1404,409,932,950,164,111871,90260,18019,64,180,5.5,0,0,777.7,77777,9,999999999,0,0.0000,0,0,999.000,0.0,99.0
2010,2,10,16,0,?9?9?9?9E0?9?9?9?9*9?9?9?9?9*9?9*9*9?9*_?9?9*9?9*9,30.7,22.1,60,98090,903,1404,409,748,843,206,89802,80098,22680,102,180,4.2,0,0,777.7,77777,9,999999999,0,0.0000,0,0,999.000,0.0,99.0
2010,2,10,17,0,?9?9?9?9E0?9?9?9?9*9?9?9?9?9*9?9*9*9?9*_?9?9*9?9*9,30.4,22.0,61,98090,618,1404,407,518,826,155,62135,78443,17034,112,180,3.8,0,0,777.7,77777,9,999999999,0,0.0000,0,0,999.000,0.0,99.0
2010,2,10,18,0,?9?9?9?9E0?9?9?9?9*9?9?9?9?9*9?9*9*9?9*_?9?9*9?9*9,29.7,22.0,62,98090,300,1404,425,258,645,121,30912,61286,13279,181,180,2.9,4,4,777.7,77777,9,999999999,0,0.0000,0,0,999.000,0.0,99.0
2010,2,10,19,0,?9?9?9?9E0?9?9?9?9*9?9?9?9?9*9?9*9*9?9*_?9?9*9?9*9,28.9,22.0,69,98090,0,1404,439,27,0,0,3215,0,0,0,180,2.3,8,8,777.7,77777,9,999999999,0,0.0000,0,0,999.000,0.1,99.0
2010,2,10,20,0,?9?9?9?9E0?9?9?9?9*9?9?9?9?9*9?9*9*9?9*_?9?9*9?9*9,28.3,21.9,71,98090,0,1404,435,0,0,0,0,0,0,0,180,1.7,8,8,777.7,77777,9,999999999,0,0.0000,0,0,999.000,0.0,99.0
2010,2,10,21,0,?9?9?9?9E0?9?9?9?9*9?9?9?9?9*9?9*9*9?9*_?9?9*9?9*9,27.7,21.9,69,98090,0,1404,425,0,0,0,0,0,0,0,180,1.7,7,7,777.7,77777,9,999999999,0,0.0000,0,0,999.000,0.0,99.0
2010,2,10,22,0,?9?9?9?9E0?9?9?9?9*9?9?9?9?9*9?9*9*9?9*_?9?9*9?9*9,27.1,21.9,71,98090,0,1404,421,0,0,0,0,0,0,0,180,1.7,7,7,777.7,77777,9,999999999,0,0.0000,0,0,999.000,0.0,99.0
2010,2,10,23,0,?9?9?9?9E0?9?9?9?9*9?9?9?9?9*9?9*9*9?9*_?9?9*9?9*9,26.4,21.8,73,98090,0,1404,413,0,0,0,0,0,0,0,180,1.7,6,6,777.7,77777,9,999999999,0,0.0000,0,0,999.000,0.0,99.0
2010,2,10,24,0,?9?9?9?9E0?9?9?9?9*9?9?9?9?9*9?9*9*9?9*_?9?9*9?9*9,25.8,21.3,76,98090,0,1404,409,0,0,0,0,0,0,0,180,1.5,6,6,777.7,77777,9,999999999,0,0.0000,0,0,999.000,0.0,99.0
2010,2,11,1,0,?9?9?9?9E0?9?9?9?9*9?9?9?9?9*9?9*9*9?9*_?9?9*9?9*9,25.5,21.4,77,98090,0,1404,407,0,0,0,0,0,0,0,180,1.5,6,6,777.7,77777,9,999999999,0,0.0000,0,0,999.000,0.0,99.0
2010,2,11,2,0,?9?9?9?9E0?9?9?9?9*9?9?9?9?9*9?9*9*9?9*_?9?9*9?9*9,25.2,21.4,79,98090,0,1404,402,0,0,0,0,0,0,0,180,1.5,5,5,777.7,77777,9,999999999,0,0.0000,0,0,999.000,0.0,99.0
2010,2,11,3,0,?9?9?9?9E0?9?9?9?9*9?9?9?9?9*9?9*9*9?9*_?9?9*9?9*9,24.9,21.4,81,98090,0,1404,400,0,0,0,0,0,0,0,180,1.5,5,5,777.7,77777,9,999999999,0,0.0000,0,0,999.000,0.0,99.0
2010,2,11,4,0,?9?9?9?9E0?9?9?9?9*9?9?9?9?9*9?9*9*9?9*_?9?9*9?9*9,24.6,21.4,82,98090,0,1403,399,0,0,0,0,0,0,0,180,1.5,5,5,777.7,77777,9,999999999,0,0.0000,0,0,999.000,0.0,99.0
2010,2,11,5,0,?9?9?9?9E0?9?9?9?9*9?9?9?9?9*9?9*9*9?9*_?9?9*9?9*9,24.3,21.5,84,98090,0,1403,394,0,0,0,0,0,0,0,180,1.5,4,4,777.7,77777,9,999999999,0,0.0000,0,0,999.000,0.0,99.0
2010,2,11,6,0,?9?9?9?9E0?9?9?9?9*9?9?9?9?9*9?9*9*9?9*_?9?9*9?9*9,24.0,21.5,85,98090,0,1403,393,0,0,0,0,0,0,0,180,1.5,4,4,777.7,77777,9,999999999,0,0.0000,0,0,999.000,0.0,99.0
2010,2,11,7,0,?9?9?9?9E0?9?9?9?9*9?9?9?9?9*9?9*9*9?9*_?9?9*9?9*9,23.8,21.5,87,98090,285,1403,389,21,0,21,2538,0,2327,33,180,1.5,3,3,777.7,77777,9,999999999,0,0.0000,0,0,999.000,0.0,99.0
2010,2,11,8,0,?9?9?9?9E0?9?9?9?9*9?9?9?9?9*9?9*9*9?9*_?9?9*9?9*9,23.6,21.5,88,98090,604,1403,388,258,175,183,30929,16623,20079,135,180,1.5,3,3,777.7,77777,9,999999999,0,0.0000,0,0,999.000,0.0,99.0
2010,2,11,9,0,?9?9?9?9E0?9?9?9?9*9?9?9?9?9*9?9*9*9?9*_?9?9*9?9*9,27.2,21.2,69,98090,891,1403,390,534,433,259,64074,41146,28499,130,180,1.6,0,0,777.7,77777,9,999999999,0,0.0000,0,0,999.000,0.0,99.0
2010,2,11,10,0,?9?9?9?9E0?9?9?9?9*9?9?9?9?9*9?9*9*9?9*_?9?9*9?9*9,28.4,21.0,64,98090,1126,1403,396,780,642,266,93644,60968,29206,105,180,2.6,0,0,777.7,77777,9,999999999,0,0.0000,0,0,999.000,0.0,99.0
2010,2,11,11,0,?9?9?9?9E0?9?9?9?9*9?9?9?9?9*9?9*9*9?9*_?9?9*9?9*9,29.4,20.9,60,98090,1293,1403,401,966,792,237,115973,75266,26023,82,180,2.8,0,0,777.7,77777,9,999999999,0,0.0000,0,0,999.000,0.0,99.0
2010,2,11,12,0,?9?9?9?9E0?9?9?9?9*9?9?9?9?9*9?9*9*9?9*_?9?9*9?9*9,30.2,20.9,57,98090,1380,1403,405,1084,935,164,130031,88848,18020,53,180,3.9,0,0,777.7,77777,9,999999999,0,0.0000,0,0,999.000,0.0,99.0
2010,2,11,13,0,?9?9?9?9E0?9?9?9?9*9?9?9?9?9*9?9*9*9?9*_?9?9*9?9*9,30.9,20.8,55,98090,1382,1403,408,1124,899,239,134898,85444,26237,77,180,4.9,0,0,777.7,77777,9,999999999,0,0.0000,0,0,999.000,0.0,99.0
2010,2,11,14,0,?9?9?9?9E0?9?9?9?9*9?9?9?9?9*9?9*9*9?9*_?9?9*9?9*9,31.2,20.8,53,98090,1298,1403,410,1087,957,202,130494,90925,22258,70,180,5.2,0,0,777.7,77777,9,999999999,0,0.0000,0,0,999.000,0.0,99.0
2010,2,11,15,0,?9?9?9?9E0?9?9?9?9*9?9?9?9?9*9?9*9*9?9*_?9?9*9?9*9,31.4,20.7,53,98090,1134,1403,411,963,970,180,115567,92138,19751,71,180,5.0,0,0,777.7,77777,9,999999999,0,0.0000,0,0,999.000,0.0,99.0
2010,2,11,16,0,?9?9?9?9E0?9?9?9?9*9?9?9?9?9*9?9*9*9?9*_?9?9*9?9*9,31.3,20.8,53,98090,901,1403,410,775,845,233,93004,80231,25627,116,180,5.1,0,0,777.7,77777,9,999999999,0,0.0000,0,0,999.000,0.0,99.0
2010,2,11,17,0,?9?9?9?9E0?9?9?9?9*9?9?9?9?9*9?9*9*9?9*_?9?9*9?9*9,30.8,20.8,55,98090,615,1403,408,530,822,170,63644,78101,18727,124,180,4.6,0,0,777.7,77777,9,999999999,0,0.0000,0,0,999.000,0.0,99.0
2010,2,11,18,0,?9?9?9?9E0?9?9?9?9*9?9?9?9?9*9?9*9*9?9*_?9?9*9?9*9,30.0,20.9,58,98090,297,1403,425,257,641,122,30869,60920,13457,185,180,4.1,4,4,777.7,77777,9,999999999,0,0.0000,0,0,999.000,0.0,99.0
2010,2,11,19,0,?9?9?9?9E0?9?9?9?9*9?9?9?9?9*9?9*9*9?9*_?9?9*9?9*9,29.0,21.0,66,98090,0,1403,438,22,0,0,2693,0,0,0,180,3.2,8,8,777.7,77777,9,999999999,0,0.0000,0,0,999.000,0.1,99.0
2010,2,11,20,0,?9?9?9?9E0?9?9?9?9*9?9?9?9?9*9?9*9*9?9*_?9?9*9?9*9,28.4,21.0,69,98090,0,1403,435,0,0,0,0,0,0,0,180,2.1,8,8,777.7,77777,9,999999999,0,0.0000,0,0,999.000,0.0,99.0
2010,2,11,21,0,?9?9?9?9E0?9?9?9?9*9?9?9?9?9*9?9*9*9?9*_?9?9*9?9*9,27.8,21.1,71,98090,0,1403,431,0,0,0,0,0,0,0,180,1.5,8,8,777.7,77777,9,999999999,0,0.0000,0,0,999.000,0.0,99.0
2010,2,11,22,0,?9?9?9?9E0?9?9?9?9*9?9?9?9?9*9?9*9*9?9*_?9?9*9?9*9,27.2,21.2,79,98090,0,1403,428,0,0,0,0,0,0,0,180,1.5,8,8,777.7,77777,9,999999999,2,0.0000,0,0,999.000,2.8,99.0
2010,2,11,23,0,?9?9?9?9E0?9?9?9?9*9?9?9?9?9*9?9*9*9?9*_?9?9*9?9*9,26.6,21.2,77,98090,0,1403,418,0,0,0,0,0,0,0,180,1.5,7,7,777.7,77777,9,999999999,0,0.0000,0,0,999.000,0.1,99.0
2010,2,11,24,0,?9?9?9?9E0?9?9?9?9*9?9?9?9?9*9?9*9*9?9*_?9?9*9?9*9,26.0,21.1,74,98090,0,1403,414,0,0,0,0,0,0,0,180,1.8,7,7,777.7,77777,9,999999999,0,0.0000,0,0,999.000,0.0,99.0
2010,2,12,1,0,?9?9?9?9E0?9?9?9?9*9?9?9?9?9*9?9*9*9?9*_?9?9*9?9*9,25.7,21.1,80,98090,0,1403,413,0,0,0,0,0,0,0,180,1.8,7,7,777.7,77777,9,999999999,0,0.0000,0,0,999.000,0.0,99.0
2010,2,12,2,0,?9?9?9?9E0?9?9?9?9*9?9?9?9?9*9?9*9*9?9*_?9?9*9?9*9,25.4,21.1,82,98090,0,1403,411,0,0,0,0,0,0,0,180,1.8,7,7,777.7,77777,9,999999999,0,0.0000,0,0,999.000,0.0,99.0
2010,2,12,3,0,?9?9?9?9E0?9?9?9?9*9?9?9?9?9*9?9*9*9?9*_?9?9*9?9*9,25.0,21.1,83,98090,0,1403,409,0,0,0,0,0,0,0,180,1.8,7,7,777.7,77777,9,999999999,0,0.0000,0,0,999.000,0.0,99.0
2010,2,12,4,0,?9?9?9?9E0?9?9?9?9*9?9?9?9?9*9?9*9*9?9*_?9?9*9?9*9,24.8,21.1,85,98090,0,1403,407,0,0,0,0,0,0,0,180,1.8,7,7,777.7,77777,9,999999999,0,0.0000,0,0,999.000,0.0,99.0
2010,2,12,5,0,?9?9?9?9E0?9?9?9?9*9?9?9?9?9*9?9*9*9?9*_?9?9*9?9*9,24.4,21.1,81,98090,0,1403,401,0,0,0,0,0,0,0,180,1.8,6,6,777.7,77777,9,999999999,0,0.0000,0,0,999.000,0.0,99.0
2010,2,12,6,0,?9?9?9?9E0?9?9?9?9*9?9?9?9?9*9?9*9*9?9*_?9?9*9?9*9,24.2,21.1,82,98090,0,1403,400,0,0,0,0,0,0,0,180,1.8,6,6,777.7,77777,9,999999999,0,0.0000,0,0,999.000,0.0,99.0
2010,2,12,7,0,?9?9?9?9E0?9?9?9?9*9?9?9?9?9*9?9*9*9?9*_?9?9*9?9*9,24.0,21.1,83,98090,282,1403,399,16,0,16,1943,0,1781,26,180,1.8,6,6,777.7,77777,9,999999999,0,0.0000,0,0,999.000,0.0,99.0
2010,2,12,8,0,?9?9?9?9E0?9?9?9?9*9?9?9?9?9*9?9*9*9?9*_?9?9*9?9*9,23.8,21.1,84,98090,602,1403,398,224,98,182,26878,9351,20001,135,180,1.8,6,6,777.7,77777,9,999999999,0,0.0000,0,0,999.000,0.0,99.0
2010,2,12,9,0,?9?9?9?9E0?9?9?9?9*9?9?9?9?9*9?9*9*9?9*_?9?9*9?9*9,27.0,21.1,70,98090,889,1403,405,464,263,298,55703,24937,32772,150,180,1.8,3,3,777.7,77777,9,999999999,0,0.0000,0,0,999.000,0.0,99.0
2010,2,12,10,0,?9?9?9?9E0?9?9?9?9*9?9?9?9?9*9?9*9*9?9*_?9?9*9?9*9,28.0,21.1,66,98090,1124,1403,394,687,434,339,82421,41259,37274,135,180,1.9,0,0,777.7,77777,9,999999999,0,0.0000,0,0,999.000,0.0,99.0
2010,2,12,11,0,?9?9?9?9E0?9?9?9?9*9?9?9?9?9*9?9*9*9?9*_?9?9*9?9*9,29.0,21.1,62,98090,1291,1403,399,877,590,334,105212,56045,36717,115,180,2.7,0,0,777.7,77777,9,999999999,0,0.0000,0,0,999.000,0.0,99.0
2010,2,12,12,0,?9?9?9?9E0?9?9?9?9*9?9?9?9?9*9?9*9*9?9*_?9?9*9?9*9,29.8,21.1,59,98090,1378,1403,403,985,623,373,118237,59171,41056,121,180,3.8,0,0,777.7,77777,9,999999999,0,0.0000,0,0,999.000,0.0,99.0
2010,2,12,13,0,?9?9?9?9E0?9?9?9?9*9?9?9?9?9*9?9*9*9?9*_?9?9*9?9*9,30.3,21.1,57,98090,1380,1403,406,1019,724,307,122302,68741,33795,99,180,4.9,0,0,777.7,77777,9,999999999,0,0.0000,0,0,999.000,0.0,99.0
2010,2,12,14,0,?9?9?9?9E0?9?9?9?9*9?9?9?9?9*9?9*9*9?9*_?9?9*9?9*9,30.7,21.1,56,98090,1296,1403,408,987,878,176,118487,83421,19368,61,180,5.3,0,0,777.7,77777,9,999999999,0,0.0000,0,0,999.000,0.0,99.0
2010,2,12,15,0,?9?9?9?9E0?9?9?9?9*9?9?9?9?9*9?9*9*9?9*_?9?9*9?9*9,30.8,21.1,56,98090,1132,1403,409,871,977,82,104513,92853,9059,32,180,5.4,0,0,777.7,77777,9,999999999,0,0.0000,0,0,999.000,0.0,99.0
2010,2,12,16,0,?9?9?9?9E0?9?9?9?9*9?9?9?9?9*9?9*9*9?9*_?9?9*9?9*9,30.7,21.1,56,98090,899,1403,408,696,808,179,83572,76758,19676,89,180,4.5,0,0,777.7,77777,9,999999999,0,0.0000,0,0,999.000,0.0,99.0
2010,2,12,17,0,?9?9?9?9E0?9?9?9?9*9?9?9?9?9*9?9*9*9?9*_?9?9*9?9*9,30.3,21.1,57,98090,613,1403,423,474,773,137,56897,73459,15029,100,180,3.7,3,3,777.7,77777,9,999999999,0,0.0000,0,0,999.000,0.0,99.0
2010,2,12,18,0,?9?9?9?9E0?9?9?9?9*9?9?9?9?9*9?9*9*9?9*_?9?9*9?9*9,29.6,21.1,60,98090,294,1403,429,221,572,102,26494,54299,11179,155,180,3.2,6,6,777.7,77777,9,999999999,0,0.0000,0,0,999.000,0.0,99.0
2010,2,12,19,0,?9?9?9?9E0?9?9?9?9*9?9?9?9?9*9?9*9*9?9*_?9?9*9?9*9,28.7,21.1,63,98090,0,1403,436,23,0,0,2818,0,0,0,180,2.1,8,8,777.7,77777,9,999999999,0,0.0000,0,0,999.000,0.0,99.0
2010,2,12,20,0,?9?9?9?9E0?9?9?9?9*9?9?9?9?9*9?9*9*9?9*_?9?9*9?9*9,28.2,21.1,70,98090,0,1403,433,0,0,0,0,0,0,0,180,1.8,8,8,777.7,77777,9,999999999,0,0.0000,0,0,999.000,0.0,99.0
2010,2,12,21,0,?9?9?9?9E0?9?9?9?9*9?9?9?9?9*9?9*9*9?9*_?9?9*9?9*9,27.7,21.1,72,98090,0,1403,430,0,0,0,0,0,0,0,180,1.8,8,8,777.7,77777,9,999999999,0,0.0000,0,0,999.000,0.1,99.0
2010,2,12,22,0,?9?9?9?9E0?9?9?9?9*9?9?9?9?9*9?9*9*9?9*_?9?9*9?9*9,27.1,21.1,74,98090,0,1403,427,0,0,0,0,0,0,0,180,1.8,8,8,777.7,77777,9,999999999,0,0.0000,0,0,999.000,0.9,99.0
2010,2,12,23,0,?9?9?9?9E0?9?9?9?9*9?9?9?9?9*9?9*9*9?9*_?9?9*9?9*9,26.6,21.1,71,98090,0,1403,418,0,0,0,0,0,0,0,180,1.8,7,7,777.7,77777,9,999999999,0,0.0000,0,0,999.000,0.0,99.0
2010,2,12,24,0,?9?9?9?9E0?9?9?9?9*9?9?9?9?9*9?9*9*9?9*_?9?9*9?9*9,26.1,21.0,73,98090,0,1403,415,0,0,0,0,0,0,0,180,1.8,7,7,777.7,77777,9,999999999,0,0.0000,0,0,999.000,0.0,99.0
2010,2,13,1,0,?9?9?9?9E0?9?9?9?9*9?9?9?9?9*9?9*9*9?9*_?9?9*9?9*9,25.9,21.0,74,98090,0,1403,413,0,0,0,0,0,0,0,180,1.8,7,7,777.7,77777,9,999999999,0,0.0000,0,0,999.000,0.0,99.0
2010,2,13,2,0,?9?9?9?9E0?9?9?9?9*9?9?9?9?9*9?9*9*9?9*_?9?9*9?9*9,25.6,21.0,75,98090,0,1403,412,0,0,0,0,0,0,0,180,1.8,7,7,777.7,77777,9,999999999,0,0.0000,0,0,999.000,0.0,99.0
2010,2,13,3,0,?9?9?9?9E0?9?9?9?9*9?9?9?9?9*9?9*9*9?9*_?9?9*9?9*9,25.3,21.0,77,98090,0,1403,411,0,0,0,0,0,0,0,180,1.8,7,7,777.7,77777,9,999999999,0,0.0000,0,0,999.000,0.0,99.0
2010,2,13,4,0,?9?9?9?9E0?9?9?9?9*9?9?9?9?9*9?9*9*9?9*_?9?9*9?9*9,25.1,21.0,78,98090,0,1402,409,0,0,0,0,0,0,0,180,1.8,7,7,777.7,77777,9,999999999,0,0.0000,0,0,999.000,0.0,99.0
2010,2,13,5,0,?9?9?9?9E0?9?9?9?9*9?9?9?9?9*9?9*9*9?9*_?9?9*9?9*9,24.8,21.0,79,98090,0,1402,403,0,0,0,0,0,0,0,180,1.8,6,6,777.7,77777,9,999999999,0,0.0000,0,0,999.000,0.0,99.0
2010,2,13,6,0,?9?9?9?9E0?9?9?9?9*9?9?9?9?9*9?9*9*9?9*_?9?9*9?9*9,24.6,21.0,80,98090,0,1402,402,0,0,0,0,0,0,0,180,1.8,6,6,777.7,77777,9,999999999,0,0.0000,0,0,999.000,0.0,99.0
2010,2,13,7,0,?9?9?9?9E0?9?9?9?9*9?9?9?9?9*9?9*9*9?9*_?9?9*9?9*9,24.5,21.0,81,98090,280,1402,401,15,0,15,1784,0,1636,24,180,1.8,6,6,777.7,77777,9,999999999,0,0.0000,0,0,999.000,0.0,99.0
2010,2,13,8,0,?9?9?9?9E0?9?9?9?9*9?9?9?9?9*9?9*9*9?9*_?9?9*9?9*9,24.3,21.0,82,98090,599,1402,400,207,74,175,24784,7003,19258,131,180,1.8,6,6,777.7,77777,9,999999999,0,0.0000,0,0,999.000,0.0,99.0
2010,2,13,9,0,?9?9?9?9E0?9?9?9?9*9?9?9?9?9*9?9*9*9?9*_?9?9*9?9*9,27.5,21.1,67,98090,887,1402,411,445,226,302,53370,21437,33232,152,180,1.8,4,4,777.7,77777,9,999999999,0,0.0000,0,0,999.000,0.0,99.0
2010,2,13,10,0,?9?9?9?9E0?9?9?9?9*9?9?9?9?9*9?9*9*9?9*_?9?9*9?9*9,28.5,21.1,64,98090,1122,1402,414,638,326,377,76506,30958,41446,150,180,1.8,3,3,777.7,77777,9,999999999,0,0.0000,0,0,999.000,0.0,99.0
2010,2,13,11,0,?9?9?9?9E0?9?9?9?9*9?9?9?9?9*9?9*9*9?9*_?9?9*9?9*9,29.5,21.1,60,98090,1289,1402,419,792,439,388,94981,41724,42642,134,180,2.4,3,3,777.7,77777,9,999999999,0,0.0000,0,0,999.000,0.0,99.0
2010,2,13,12,0,?9?9?9?9E0?9?9?9?9*9?9?9?9?9*9?9*9*9?9*_?9?9*9?9*9,30.3,21.1,58,98090,1377,1402,406,931,544,397,111678,51668,43629,129,180,2.9,0,0,777.7,77777,9,999999999,0,0.0000,0,0,999.000,0.0,99.0
2010,2,13,13,0,?9?9?9?9E0?9?9?9?9*9?9?9?9?9*9?9*9*9?9*_?9?9*9?9*9,30.9,21.1,56,98090,1378,1402,409,978,584,404,117328,55451,44429,131,180,4.2,0,0,777.7,77777,9,999999999,0,0.0000,0,0,999.000,0.0,99.0
2010,2,13,14,0,?9?9?9?9E0?9?9?9?9*9?9?9?9?9*9?9*9*9?9*_?9?9*9?9*9,31.3,21.2,54,98090,1294,1402,411,972,806,228,116671,76595,25089,79,180,4.9,0,0,777.7,77777,9,999999999,0,0.0000,0,0,999.000,0.0,99.0
2010,2,13,15,0,?9?9?9?9E0?9?9?9?9*9?9?9?9?9*9?9*9*9?9*_?9?9*9?9*9,31.5,21.2,54,98090,1130,1402,412,882,947,119,105856,89959,13109,47,180,5.7,0,0,777.7,77777,9,999999999,0,0.0000,0,0,999.000,0.0,99.0
2010,2,13,16,0,?9?9?9?9E0?9?9?9?9*9?9?9?9?9*9?9*9*9?9*_?9?9*9?9*9,31.5,21.2,54,98090,897,1402,412,727,804,213,87198,76357,23416,106,180,5.4,0,0,777.7,77777,9,999999999,0,0.0000,0,0,999.000,0.0,99.0
2010,2,13,17,0,?9?9?9?9E0?9?9?9?9*9?9?9?9?9*9?9*9*9?9*_?9?9*9?9*9,31.2,21.1,55,98090,610,1402,410,507,777,169,60810,73819,18576,124,180,4.8,0,0,777.7,77777,9,999999999,0,0.0000,0,0,999.000,0.0,99.0
2010,2,13,18,0,?9?9?9?9E0?9?9?9?9*9?9?9?9?9*9?9*9*9?9*_?9?9*9?9*9,30.5,21.1,57,98090,291,1402,428,252,636,121,30271,60416,13303,186,180,3.5,4,4,777.7,77777,9,999999999,0,0.0000,0,0,999.000,0.0,99.0
2010,2,13,19,0,?9?9?9?9E0?9?9?9?9*9?9?9?9?9*9?9*9*9?9*_?9?9*9?9*9,29.5,21.1,60,98090,0,1402,441,26,0,0,3072,0,0,0,180,2.0,8,8,777.7,77777,9,999999999,0,0.0000,0,0,999.000,0.0,99.0
2010,2,13,20,0,?9?9?9?9E0?9?9?9?9*9?9?9?9?9*9?9*9*9?9*_?9?9*9?9*9,28.9,21.1,62,98090,0,1402,437,0,0,0,0,0,0,0,180,1.8,8,8,777.7,77777,9,999999999,0,0.0000,0,0,999.000,0.0,99.0
2010,2,13,21,0,?9?9?9?9E0?9?9?9?9*9?9?9?9?9*9?9*9*9?9*_?9?9*9?9*9,28.2,21.1,65,98090,0,1402,433,0,0,0,0,0,0,0,180,1.8,8,8,777.7,77777,9,999999999,0,0.0000,0,0,999.000,0.0,99.0
2010,2,13,22,0,?9?9?9?9E0?9?9?9?9*9?9?9?9?9*9?9*9*9?9*_?9?9*9?9*9,27.5,21.1,67,98090,0,1402,423,0,0,0,0,0,0,0,180,1.8,7,7,777.7,77777,9,999999999,0,0.0000,0,0,999.000,0.0,99.0
2010,2,13,23,0,?9?9?9?9E0?9?9?9?9*9?9?9?9?9*9?9*9*9?9*_?9?9*9?9*9,26.9,21.1,70,98090,0,1402,419,0,0,0,0,0,0,0,180,1.8,7,7,777.7,77777,9,999999999,0,0.0000,0,0,999.000,0.0,99.0
2010,2,13,24,0,?9?9?9?9E0?9?9?9?9*9?9?9?9?9*9?9*9*9?9*_?9?9*9?9*9,26.2,21.8,76,98090,0,1402,416,0,0,0,0,0,0,0,180,2.0,7,7,777.7,77777,9,999999999,0,0.0000,0,0,999.000,0.0,99.0
2010,2,14,1,0,?9?9?9?9E0?9?9?9?9*9?9?9?9?9*9?9*9*9?9*_?9?9*9?9*9,25.8,21.8,78,98090,0,1402,414,0,0,0,0,0,0,0,180,2.0,7,7,777.7,77777,9,999999999,0,0.0000,0,0,999.000,0.0,99.0
2010,2,14,2,0,?9?9?9?9E0?9?9?9?9*9?9?9?9?9*9?9*9*9?9*_?9?9*9?9*9,25.5,21.7,79,98090,0,1402,408,0,0,0,0,0,0,0,180,2.0,6,6,777.7,77777,9,999999999,0,0.0000,0,0,999.000,0.0,99.0
2010,2,14,3,0,?9?9?9?9E0?9?9?9?9*9?9?9?9?9*9?9*9*9?9*_?9?9*9?9*9,25.2,21.6,80,98090,0,1402,406,0,0,0,0,0,0,0,180,2.0,6,6,777.7,77777,9,999999999,0,0.0000,0,0,999.000,0.0,99.0
2010,2,14,4,0,?9?9?9?9E0?9?9?9?9*9?9?9?9?9*9?9*9*9?9*_?9?9*9?9*9,24.8,21.5,82,98090,0,1402,404,0,0,0,0,0,0,0,180,2.0,6,6,777.7,77777,9,999999999,0,0.0000,0,0,999.000,0.0,99.0
2010,2,14,5,0,?9?9?9?9E0?9?9?9?9*9?9?9?9?9*9?9*9*9?9*_?9?9*9?9*9,24.5,21.5,83,98090,0,1402,402,0,0,0,0,0,0,0,180,2.0,6,6,777.7,77777,9,999999999,0,0.0000,0,0,999.000,0.0,99.0
2010,2,14,6,0,?9?9?9?9E0?9?9?9?9*9?9?9?9?9*9?9*9*9?9*_?9?9*9?9*9,24.2,21.4,84,98090,0,1402,397,0,0,0,0,0,0,0,180,2.0,5,5,777.7,77777,9,999999999,0,0.0000,0,0,999.000,0.0,99.0
2010,2,14,7,0,?9?9?9?9E0?9?9?9?9*9?9?9?9?9*9?9*9*9?9*_?9?9*9?9*9,24.0,21.4,85,98090,277,1402,396,17,0,17,2083,0,1910,28,180,2.0,5,5,777.7,77777,9,999999999,0,0.0000,0,0,999.000,0.0,99.0
2010,2,14,8,0,?9?9?9?9E0?9?9?9?9*9?9?9?9?9*9?9*9*9?9*_?9?9*9?9*9,23.8,21.3,86,98090,597,1402,394,231,118,181,27737,11173,19924,136,180,2.0,5,5,777.7,77777,9,999999999,0,0.0000,0,0,999.000,0.0,99.0
2010,2,14,9,0,?9?9?9?9E0?9?9?9?9*9?9?9?9?9*9?9*9*9?9*_?9?9*9?9*9,26.8,22.0,74,98090,885,1402,401,478,300,289,57372,28490,31779,146,180,2.0,2,2,777.7,77777,9,999999999,0,0.0000,0,0,999.000,0.0,99.0
2010,2,14,10,0,?9?9?9?9E0?9?9?9?9*9?9?9?9?9*9?9*9*9?9*_?9?9*9?9*9,27.9,22.1,71,98090,1120,1402,394,710,511,301,85164,48526,33163,120,180,2.0,0,0,777.7,77777,9,999999999,0,0.0000,0,0,999.000,0.0,99.0
2010,2,14,11,0,?9?9?9?9E0?9?9?9?9*9?9?9?9?9*9?9*9*9?9*_?9?9*9?9*9,28.7,22.3,68,98090,1288,1402,399,883,626,308,105902,59464,33827,107,180,2.8,0,0,777.7,77777,9,999999999,0,0.0000,0,0,999.000,0.0,99.0
2010,2,14,12,0,?9?9?9?9E0?9?9?9?9*9?9?9?9?9*9?9*9*9?9*_?9?9*9?9*9,29.5,22.5,66,98090,1375,1402,403,985,629,368,118181,59769,40437,119,180,3.4,0,0,777.7,77777,9,999999999,0,0.0000,0,0,999.000,0.0,99.0
2010,2,14,13,0,?9?9?9?9E0?9?9?9?9*9?9?9?9?9*9?9*9*9?9*_?9?9*9?9*9,30.0,22.6,64,98090,1377,1402,406,1027,760,281,123247,72194,30870,91,180,4.1,0,0,777.7,77777,9,999999999,0,0.0000,0,0,999.000,0.0,99.0
2010,2,14,14,0,?9?9?9?9E0?9?9?9?9*9?9?9?9?9*9?9*9*9?9*_?9?9*9?9*9,30.3,22.6,63,98090,1292,1402,408,992,904,159,119095,85913,17449,55,180,5.1,0,0,777.7,77777,9,999999999,0,0.0000,0,0,999.000,0.0,99.0
2010,2,14,15,0,?9?9?9?9E0?9?9?9?9*9?9?9?9?9*9?9*9*9?9*_?9?9*9?9*9,30.5,22.6,63,98090,1128,1402,408,889,756,280,106681,71867,30841,111,180,5.2,0,0,777.7,77777,9,999999999,0,0.0000,0,0,999.000,0.0,99.0
2010,2,14,16,0,?9?9?9?9E0?9?9?9?9*9?9?9?9?9*9?9*9*9?9*_?9?9*9?9*9,30.4,22.6,63,98090,894,1402,408,715,830,186,85842,78803,20493,93,180,4.3,0,0,777.7,77777,9,999999999,0,0.0000,0,0,999.000,0.0,99.0
2010,2,14,17,0,?9?9?9?9E0?9?9?9?9*9?9?9?9?9*9?9*9*9?9*_?9?9*9?9*9,30.0,22.6,64,98090,608,1402,413,494,776,158,59250,73693,17356,116,180,3.5,1,1,777.7,77777,9,999999999,0,0.0000,0,0,999.000,0.0,99.0
2010,2,14,18,0,?9?9?9?9E0?9?9?9?9*9?9?9?9?9*9?9*9*9?9*_?9?9*9?9*9,29.3,22.4,66,98090,288,1402,426,240,567,124,28831,53834,13685,194,180,2.8,5,5,777.7,77777,9,999999999,0,0.0000,0,0,999.000,0.0,99.0
2010,2,14,19,0,?9?9?9?9E0?9?9?9?9*9?9?9?9?9*9?9*9*9?9*_?9?9*9?9*9,28.5,22.3,69,98090,0,1402,437,22,0,0,2671,0,0,0,180,2.0,8,8,777.7,77777,9,999999999,0,0.0000,0,0,999.000,0.0,99.0
2010,2,14,20,0,?9?9?9?9E0?9?9?9?9*9?9?9?9?9*9?9*9*9?9*_?9?9*9?9*9,27.9,22.1,71,98090,0,1402,433,0,0,0,0,0,0,0,180,2.0,8,8,777.7,77777,9,999999999,0,0.0000,0,0,999.000,0.0,99.0
2010,2,14,21,0,?9?9?9?9E0?9?9?9?9*9?9?9?9?9*9?9*9*9?9*_?9?9*9?9*9,27.3,22.0,72,98090,0,1402,423,0,0,0,0,0,0,0,180,2.0,7,7,777.7,77777,9,999999999,0,0.0000,0,0,999.000,0.0,99.0
2010,2,14,22,0,?9?9?9?9E0?9?9?9?9*9?9?9?9?9*9?9*9*9?9*_?9?9*9?9*9,26.7,21.9,74,98090,0,1402,419,0,0,0,0,0,0,0,180,2.0,7,7,777.7,77777,9,999999999,0,0.0000,0,0,999.000,0.0,99.0
2010,2,14,23,0,?9?9?9?9E0?9?9?9?9*9?9?9?9?9*9?9*9*9?9*_?9?9*9?9*9,26.1,21.8,77,98090,0,1402,416,0,0,0,0,0,0,0,180,2.0,7,7,777.7,77777,9,999999999,0,0.0000,0,0,999.000,0.0,99.0
2010,2,14,24,0,?9?9?9?9E0?9?9?9?9*9?9?9?9?9*9?9*9*9?9*_?9?9*9?9*9,25.6,21.0,75,98090,0,1402,407,0,0,0,0,0,0,0,180,1.7,6,6,777.7,77777,9,999999999,0,0.0000,0,0,999.000,0.0,99.0
2010,2,15,1,0,?9?9?9?9E0?9?9?9?9*9?9?9?9?9*9?9*9*9?9*_?9?9*9?9*9,25.3,20.9,76,98090,0,1402,405,0,0,0,0,0,0,0,180,1.7,6,6,777.7,77777,9,999999999,0,0.0000,0,0,999.000,0.0,99.0
2010,2,15,2,0,?9?9?9?9E0?9?9?9?9*9?9?9?9?9*9?9*9*9?9*_?9?9*9?9*9,25.0,20.9,78,98090,0,1402,404,0,0,0,0,0,0,0,180,1.7,6,6,777.7,77777,9,999999999,0,0.0000,0,0,999.000,0.0,99.0
2010,2,15,3,0,?9?9?9?9E0?9?9?9?9*9?9?9?9?9*9?9*9*9?9*_?9?9*9?9*9,24.7,20.9,79,98090,0,1402,402,0,0,0,0,0,0,0,180,1.7,6,6,777.7,77777,9,999999999,0,0.0000,0,0,999.000,0.0,99.0
2010,2,15,4,0,?9?9?9?9E0?9?9?9?9*9?9?9?9?9*9?9*9*9?9*_?9?9*9?9*9,24.4,20.9,80,98090,0,1401,397,0,0,0,0,0,0,0,180,1.7,5,5,777.7,77777,9,999999999,0,0.0000,0,0,999.000,0.0,99.0
2010,2,15,5,0,?9?9?9?9E0?9?9?9?9*9?9?9?9?9*9?9*9*9?9*_?9?9*9?9*9,24.1,20.9,82,98090,0,1401,396,0,0,0,0,0,0,0,180,1.7,5,5,777.7,77777,9,999999999,0,0.0000,0,0,999.000,0.0,99.0
2010,2,15,6,0,?9?9?9?9E0?9?9?9?9*9?9?9?9?9*9?9*9*9?9*_?9?9*9?9*9,23.9,20.9,83,98090,0,1401,394,0,0,0,0,0,0,0,180,1.7,5,5,777.7,77777,9,999999999,0,0.0000,0,0,999.000,0.0,99.0
2010,2,15,7,0,?9?9?9?9E0?9?9?9?9*9?9?9?9?9*9?9*9*9?9*_?9?9*9?9*9,23.7,20.9,84,98090,274,1401,390,17,0,17,2081,0,1907,28,180,1.7,4,4,777.7,77777,9,999999999,0,0.0000,0,0,999.000,0.0,99.0
2010,2,15,8,0,?9?9?9?9E0?9?9?9?9*9?9?9?9?9*9?9*9*9?9*_?9?9*9?9*9,23.5,20.9,85,98090,594,1401,389,244,150,180,29233,14216,19822,135,180,1.7,4,4,777.7,77777,9,999999999,0,0.0000,0,0,999.000,0.0,99.0
2010,2,15,9,0,?9?9?9?9E0?9?9?9?9*9?9?9?9?9*9?9*9*9?9*_?9?9*9?9*9,26.7,21.0,70,98090,883,1401,387,514,392,267,61627,37222,29355,135,180,1.7,0,0,777.7,77777,9,999999999,0,0.0000,0,0,999.000,0.0,99.0
2010,2,15,10,0,?9?9?9?9E0?9?9?9?9*9?9?9?9?9*9?9*9*9?9*_?9?9*9?9*9,27.8,21.0,66,98090,1118,1401,392,760,623,262,91140,59177,28856,105,180,1.7,0,0,777.7,77777,9,999999999,0,0.0000,0,0,999.000,0.0,99.0
2010,2,15,11,0,?9?9?9?9E0?9?9?9?9*9?9?9?9?9*9?9*9*9?9*_?9?9*9?9*9,28.7,21.1,63,98090,1286,1401,397,946,741,266,113497,70404,29228,92,180,1.9,0,0,777.7,77777,9,999999999,0,0.0000,0,0,999.000,0.0,99.0
2010,2,15,12,0,?9?9?9?9E0?9?9?9?9*9?9?9?9?9*9?9*9*9?9*_?9?9*9?9*9,29.5,21.1,60,98090,1373,1401,401,1062,888,192,127472,84328,21141,62,180,2.6,0,0,777.7,77777,9,999999999,0,0.0000,0,0,999.000,0.0,99.0
2010,2,15,13,0,?9?9?9?9E0?9?9?9?9*9?9?9?9?9*9?9*9*9?9*_?9?9*9?9*9,30.1,21.1,58,98090,1375,1401,404,1108,880,245,132966,83591,26905,79,180,3.7,0,0,777.7,77777,9,999999999,0,0.0000,0,0,999.000,0.0,99.0
2010,2,15,14,0,?9?9?9?9E0?9?9?9?9*9?9?9?9?9*9?9*9*9?9*_?9?9*9?9*9,30.4,21.1,57,98090,1290,1401,406,1072,947,200,128604,89926,21990,69,180,4.6,0,0,777.7,77777,9,999999999,0,0.0000,0,0,999.000,0.0,99.0
2010,2,15,15,0,?9?9?9?9E0?9?9?9?9*9?9?9?9?9*9?9*9*9?9*_?9?9*9?9*9,30.6,21.1,57,98090,1126,1401,407,961,816,305,115265,77523,33552,121,180,5.3,0,0,777.7,77777,9,999999999,0,0.0000,0,0,999.000,0.0,99.0
2010,2,15,16,0,?9?9?9?9E0?9?9?9?9*9?9?9?9?9*9?9*9*9?9*_?9?9*9?9*9,30.5,21.1,57,98090,892,1401,407,782,840,247,93780,79755,27205,124,180,6.3,0,0,777.7,77777,9,999999999,0,0.0000,0,0,999.000,0.0,99.0
2010,2,15,17,0,?9?9?9?9E0?9?9?9?9*9?9?9?9?9*9?9*9*9?9*_?9?9*9?9*9,30.1,21.1,58,98090,605,1401,405,541,808,192,64883,76802,21121,142,180,5.3,0,0,777.7,77777,9,999999999,0,0.0000,0,0,999.000,0.0,99.0
2010,2,15,18,0,?9?9?9?9E0?9?9?9?9*9?9?9?9?9*9?9*9*9?9*_?9?9*9?9*9,29.4,21.1,61,98090,285,1401,414,267,592,147,32064,56210,16225,232,180,4.3,2,2,777.7,77777,9,999999999,0,0.0000,0,0,999.000,0.0,99.0
2010,2,15,19,0,?9?9?9?9E0?9?9?9?9*9?9?9?9?9*9?9*9*9?9*_?9?9*9?9*9,28.7,21.1,63,98090,0,1401,410,26,0,0,3107,0,0,0,180,3.2,2,2,777.7,77777,9,999999999,0,0.0000,0,0,999.000,0.0,99.0
2010,2,15,20,0,?9?9?9?9E0?9?9?9?9*9?9?9?9?9*9?9*9*9?9*_?9?9*9?9*9,28.0,21.0,65,98090,0,1401,406,0,0,0,0,0,0,0,180,2.3,2,2,777.7,77777,9,999999999,0,0.0000,0,0,999.000,0.0,99.0
2010,2,15,21,0,?9?9?9?9E0?9?9?9?9*9?9?9?9?9*9?9*9*9?9*_?9?9*9?9*9,27.3,21.0,68,98090,0,1401,403,0,0,0,0,0,0,0,180,1.7,2,2,777.7,77777,9,999999999,0,0.0000,0,0,999.000,0.0,99.0
2010,2,15,22,0,?9?9?9?9E0?9?9?9?9*9?9?9?9?9*9?9*9*9?9*_?9?9*9?9*9,26.6,21.0,71,98090,0,1401,403,0,0,0,0,0,0,0,180,1.7,3,3,777.7,77777,9,999999999,0,0.0000,0,0,999.000,0.0,99.0
2010,2,15,23,0,?9?9?9?9E0?9?9?9?9*9?9?9?9?9*9?9*9*9?9*_?9?9*9?9*9,25.9,21.0,74,98090,0,1401,399,0,0,0,0,0,0,0,180,1.7,3,3,777.7,77777,9,999999999,0,0.0000,0,0,999.000,0.0,99.0
2010,2,15,24,0,?9?9?9?9E0?9?9?9?9*9?9?9?9?9*9?9*9*9?9*_?9?9*9?9*9,25.2,21.2,78,98090,0,1401,396,0,0,0,0,0,0,0,180,1.9,3,3,777.7,77777,9,999999999,0,0.0000,0,0,999.000,0.0,99.0
2010,2,16,1,0,?9?9?9?9E0?9?9?9?9*9?9?9?9?9*9?9*9*9?9*_?9?9*9?9*9,24.8,21.2,80,98090,0,1401,394,0,0,0,0,0,0,0,180,1.9,3,3,777.7,77777,9,999999999,0,0.0000,0,0,999.000,0.0,99.0
2010,2,16,2,0,?9?9?9?9E0?9?9?9?9*9?9?9?9?9*9?9*9*9?9*_?9?9*9?9*9,24.5,21.2,81,98090,0,1401,392,0,0,0,0,0,0,0,180,1.9,3,3,777.7,77777,9,999999999,0,0.0000,0,0,999.000,0.0,99.0
2010,2,16,3,0,?9?9?9?9E0?9?9?9?9*9?9?9?9?9*9?9*9*9?9*_?9?9*9?9*9,24.1,21.2,83,98090,0,1401,390,0,0,0,0,0,0,0,180,1.9,3,3,777.7,77777,9,999999999,0,0.0000,0,0,999.000,0.0,99.0
2010,2,16,4,0,?9?9?9?9E0?9?9?9?9*9?9?9?9?9*9?9*9*9?9*_?9?9*9?9*9,23.8,21.2,85,98090,0,1400,388,0,0,0,0,0,0,0,180,1.9,3,3,777.7,77777,9,999999999,0,0.0000,0,0,999.000,0.0,99.0
2010,2,16,5,0,?9?9?9?9E0?9?9?9?9*9?9?9?9?9*9?9*9*9?9*_?9?9*9?9*9,23.4,21.2,87,98090,0,1400,389,0,0,0,0,0,0,0,180,1.9,4,4,777.7,77777,9,999999999,0,0.0000,0,0,999.000,0.0,99.0
2010,2,16,6,0,?9?9?9?9E0?9?9?9?9*9?9?9?9?9*9?9*9*9?9*_?9?9*9?9*9,23.2,21.2,88,98090,0,1400,388,0,0,0,0,0,0,0,180,1.9,4,4,777.7,77777,9,999999999,0,0.0000,0,0,999.000,0.0,99.0
2010,2,16,7,0,?9?9?9?9E0?9?9?9?9*9?9?9?9?9*9?9*9*9?9*_?9?9*9?9*9,22.9,21.2,89,98090,272,1400,387,16,0,16,1925,0,1764,27,180,1.9,4,4,777.7,77777,9,999999999,0,0.0000,0,0,999.000,0.0,99.0
2010,2,16,8,0,?9?9?9?9E0?9?9?9?9*9?9?9?9?9*9?9*9*9?9*_?9?9*9?9*9,22.7,21.2,91,98090,592,1400,386,237,136,180,28439,12910,19757,135,180,1.9,4,4,777.7,77777,9,999999999,0,0.0000,0,0,999.000,0.0,99.0
2010,2,16,9,0,?9?9?9?9E0?9?9?9?9*9?9?9?9?9*9?9*9*9?9*_?9?9*9?9*9,26.3,21.2,73,98090,880,1400,385,497,353,276,59698,33546,30314,140,180,1.9,0,0,777.7,77777,9,999999999,0,0.0000,0,0,999.000,0.0,99.0
2010,2,16,10,0,?9?9?9?9E0?9?9?9?9*9?9?9?9?9*9?9*9*9?9*_?9?9*9?9*9,27.5,21.1,68,98090,1116,1400,391,730,560,283,87574,53230,31147,113,180,1.9,0,0,777.7,77777,9,999999999,0,0.0000,0,0,999.000,0.0,99.0
2010,2,16,11,0,?9?9?9?9E0?9?9?9?9*9?9?9?9?9*9?9*9*9?9*_?9?9*9?9*9,28.5,21.1,64,98090,1284,1400,396,910,631,331,109176,59991,36396,115,180,2.6,0,0,777.7,77777,9,999999999,0,0.0000,0,0,999.000,0.0,99.0
2010,2,16,12,0,?9?9?9?9E0?9?9?9?9*9?9?9?9?9*9?9*9*9?9*_?9?9*9?9*9,29.4,21.1,61,98090,1371,1400,401,1031,790,258,123757,75034,28363,84,180,3.7,0,0,777.7,77777,9,999999999,0,0.0000,0,0,999.000,0.0,99.0
2010,2,16,13,0,?9?9?9?9E0?9?9?9?9*9?9?9?9?9*9?9*9*9?9*_?9?9*9?9*9,30.0,21.1,59,98090,1373,1400,404,1075,927,167,129000,88031,18322,54,180,4.8,0,0,777.7,77777,9,999999999,0,0.0000,0,0,999.000,0.0,99.0
2010,2,16,14,0,?9?9?9?9E0?9?9?9?9*9?9?9?9?9*9?9*9*9?9*_?9?9*9?9*9,30.4,21.1,57,98090,1288,1400,406,1039,903,208,124700,85826,22894,72,180,4.8,0,0,777.7,77777,9,999999999,0,0.0000,0,0,999.000,0.0,99.0
2010,2,16,15,0,?9?9?9?9E0?9?9?9?9*9?9?9?9?9*9?9*9*9?9*_?9?9*9?9*9,30.6,21.1,57,98090,1123,1400,407,925,800,283,110945,75995,31128,112,180,5.2,0,0,777.7,77777,9,999999999,0,0.0000,0,0,999.000,0.0,99.0
2010,2,16,16,0,?9?9?9?9E0?9?9?9?9*9?9?9?9?9*9?9*9*9?9*_?9?9*9?9*9,30.5,21.1,57,98090,889,1400,407,749,841,215,89904,79934,23666,108,180,4.8,0,0,777.7,77777,9,999999999,0,0.0000,0,0,999.000,0.0,99.0
2010,2,16,17,0,?9?9?9?9E0?9?9?9?9*9?9?9?9?9*9?9*9*9?9*_?9?9*9?9*9,30.0,21.1,59,98090,602,1400,404,514,817,163,61690,77653,17938,121,180,4.2,0,0,777.7,77777,9,999999999,0,0.0000,0,0,999.000,0.0,99.0
2010,2,16,18,0,?9?9?9?9E0?9?9?9?9*9?9?9?9?9*9?9*9*9?9*_?9?9*9?9*9,29.2,21.1,61,98090,282,1400,420,249,622,125,29910,59065,13732,199,180,2.5,4,4,777.7,77777,9,999999999,0,0.0000,0,0,999.000,0.0,99.0
2010,2,16,19,0,?9?9?9?9E0?9?9?9?9*9?9?9?9?9*9?9*9*9?9*_?9?9*9?9*9,28.5,21.1,64,98090,0,1400,417,21,0,0,2484,0,0,0,180,1.9,4,4,777.7,77777,9,999999999,0,0.0000,0,0,999.000,0.0,99.0
2010,2,16,20,0,?9?9?9?9E0?9?9?9?9*9?9?9?9?9*9?9*9*9?9*_?9?9*9?9*9,27.8,21.1,66,98090,0,1400,413,0,0,0,0,0,0,0,180,1.9,4,4,777.7,77777,9,999999999,0,0.0000,0,0,999.000,0.0,99.0
2010,2,16,21,0,?9?9?9?9E0?9?9?9?9*9?9?9?9?9*9?9*9*9?9*_?9?9*9?9*9,27.2,21.1,69,98090,0,1400,409,0,0,0,0,0,0,0,180,1.9,4,4,777.7,77777,9,999999999,0,0.0000,0,0,999.000,0.0,99.0
2010,2,16,22,0,?9?9?9?9E0?9?9?9?9*9?9?9?9?9*9?9*9*9?9*_?9?9*9?9*9,26.5,21.2,72,98090,0,1400,409,0,0,0,0,0,0,0,180,1.9,5,5,777.7,77777,9,999999999,0,0.0000,0,0,999.000,0.0,99.0
2010,2,16,23,0,?9?9?9?9E0?9?9?9?9*9?9?9?9?9*9?9*9*9?9*_?9?9*9?9*9,25.8,21.2,75,98090,0,1400,405,0,0,0,0,0,0,0,180,1.9,5,5,777.7,77777,9,999999999,0,0.0000,0,0,999.000,0.0,99.0
2010,2,16,24,0,?9?9?9?9E0?9?9?9?9*9?9?9?9?9*9?9*9*9?9*_?9?9*9?9*9,25.1,21.7,81,98090,0,1400,402,0,0,0,0,0,0,0,180,1.8,5,5,777.7,77777,9,999999999,0,0.0000,0,0,999.000,0.0,99.0
2010,2,17,1,0,?9?9?9?9E0?9?9?9?9*9?9?9?9?9*9?9*9*9?9*_?9?9*9?9*9,24.8,21.6,82,98090,0,1400,400,0,0,0,0,0,0,0,180,1.8,5,5,777.7,77777,9,999999999,0,0.0000,0,0,999.000,0.0,99.0
2010,2,17,2,0,?9?9?9?9E0?9?9?9?9*9?9?9?9?9*9?9*9*9?9*_?9?9*9?9*9,24.4,21.5,83,98090,0,1400,398,0,0,0,0,0,0,0,180,1.8,5,5,777.7,77777,9,999999999,0,0.0000,0,0,999.000,0.0,99.0
2010,2,17,3,0,?9?9?9?9E0?9?9?9?9*9?9?9?9?9*9?9*9*9?9*_?9?9*9?9*9,24.1,21.5,85,98090,0,1400,396,0,0,0,0,0,0,0,180,1.8,5,5,777.7,77777,9,999999999,0,0.0000,0,0,999.000,0.0,99.0
2010,2,17,4,0,?9?9?9?9E0?9?9?9?9*9?9?9?9?9*9?9*9*9?9*_?9?9*9?9*9,23.8,21.4,86,98090,0,1400,394,0,0,0,0,0,0,0,180,1.8,5,5,777.7,77777,9,999999999,0,0.0000,0,0,999.000,0.0,99.0
2010,2,17,5,0,?9?9?9?9E0?9?9?9?9*9?9?9?9?9*9?9*9*9?9*_?9?9*9?9*9,23.4,21.3,88,98090,0,1400,396,0,0,0,0,0,0,0,180,1.8,6,6,777.7,77777,9,999999999,0,0.0000,0,0,999.000,0.0,99.0
2010,2,17,6,0,?9?9?9?9E0?9?9?9?9*9?9?9?9?9*9?9*9*9?9*_?9?9*9?9*9,23.2,21.3,89,98090,0,1400,394,0,0,0,0,0,0,0,180,1.8,6,6,777.7,77777,9,999999999,0,0.0000,0,0,999.000,0.0,99.0
2010,2,17,7,0,?9?9?9?9E0?9?9?9?9*9?9?9?9?9*9?9*9*9?9*_?9?9*9?9*9,22.9,21.2,90,98090,269,1400,393,19,0,19,2290,0,2099,32,180,1.8,6,6,777.7,77777,9,999999999,0,0.0000,0,0,999.000,0.0,99.0
2010,2,17,8,0,?9?9?9?9E0?9?9?9?9*9?9?9?9?9*9?9*9*9?9*_?9?9*9?9*9,22.7,21.2,91,98090,590,1400,392,209,79,176,25048,7469,19322,133,180,1.8,6,6,777.7,77777,9,999999999,0,0.0000,0,0,999.000,0.0,99.0
2010,2,17,9,0,?9?9?9?9E0?9?9?9?9*9?9?9?9?9*9?9*9*9?9*_?9?9*9?9*9,26.3,21.9,76,98090,878,1400,402,460,266,293,55184,25302,32212,149,180,1.8,3,3,777.7,77777,9,999999999,0,0.0000,0,0,999.000,0.0,99.0
2010,2,17,10,0,?9?9?9?9E0?9?9?9?9*9?9?9?9?9*9?9*9*9?9*_?9?9*9?9*9,27.5,22.2,72,98090,1114,1400,400,673,418,340,80722,39687,37415,136,180,1.8,1,1,777.7,77777,9,999999999,0,0.0000,0,0,999.000,0.0,99.0
2010,2,17,11,0,?9?9?9?9E0?9?9?9?9*9?9?9?9?9*9?9*9*9?9*_?9?9*9?9*9,28.5,22.3,69,98090,1282,1400,411,792,469,362,95016,44568,39839,126,180,2.5,2,2,777.7,77777,9,999999999,0,0.0000,0,0,999.000,0.0,99.0
2010,2,17,12,0,?9?9?9?9E0?9?9?9?9*9?9?9?9?9*9?9*9*9?9*_?9?9*9?9*9,29.3,22.5,66,98090,1370,1400,410,909,544,377,109117,51705,41452,123,180,3.8,1,1,777.7,77777,9,999999999,0,0.0000,0,0,999.000,0.0,99.0
2010,2,17,13,0,?9?9?9?9E0?9?9?9?9*9?9?9?9?9*9?9*9*9?9*_?9?9*9?9*9,29.8,22.6,65,98090,1371,1400,418,919,549,381,110288,52155,41955,124,180,4.7,2,2,777.7,77777,9,999999999,0,0.0000,0,0,999.000,0.0,99.0
2010,2,17,14,0,?9?9?9?9E0?9?9?9?9*9?9?9?9?9*9?9*9*9?9*_?9?9*9?9*9,30.1,22.7,64,98090,1286,1400,424,849,571,324,101922,54291,35675,112,180,5.3,3,3,777.7,77777,9,999999999,0,0.0000,0,0,999.000,0.0,99.0
2010,2,17,15,0,?9?9?9?9E0?9?9?9?9*9?9?9?9?9*9?9*9*9?9*_?9?9*9?9*9,30.2,22.7,64,98090,1121,1400,425,759,638,249,91097,60591,27336,99,180,4.8,3,3,777.7,77777,9,999999999,0,0.0000,0,0,999.000,0.0,99.0
2010,2,17,16,0,?9?9?9?9E0?9?9?9?9*9?9?9?9?9*9?9*9*9?9*_?9?9*9?9*9,30.0,22.6,64,98090,887,1400,427,597,689,160,71630,65496,17652,81,180,4.3,4,4,777.7,77777,9,999999999,0,0.0000,0,0,999.000,0.0,99.0
2010,2,17,17,0,?9?9?9?9E0?9?9?9?9*9?9?9?9?9*9?9*9*9?9*_?9?9*9?9*9,29.5,22.5,66,98090,599,1400,427,408,723,99,48998,68672,10926,74,180,4.2,5,5,777.7,77777,9,999999999,0,0.0000,0,0,999.000,0.0,99.0
2010,2,17,18,0,?9?9?9?9E0?9?9?9?9*9?9?9?9?9*9?9*9*9?9*_?9?9*9?9*9,28.7,22.4,73,98090,279,1400,438,177,562,66,21264,53386,7263,106,180,3.4,8,8,777.7,77777,9,999999999,0,0.0000,0,0,999.000,0.0,99.0
2010,2,17,19,0,?9?9?9?9E0?9?9?9?9*9?9?9?9?9*9?9*9*9?9*_?9?9*9?9*9,28.1,22.3,75,98090,0,1400,435,15,0,0,1819,0,0,0,180,2.6,8,8,777.7,77777,9,999999999,0,0.0000,0,0,999.000,0.0,99.0
2010,2,17,20,0,?9?9?9?9E0?9?9?9?9*9?9?9?9?9*9?9*9*9?9*_?9?9*9?9*9,27.6,22.2,77,98090,0,1400,431,0,0,0,0,0,0,0,180,2.0,8,8,777.7,77777,9,999999999,0,0.0000,0,0,999.000,0.1,99.0
2010,2,17,21,0,?9?9?9?9E0?9?9?9?9*9?9?9?9?9*9?9*9*9?9*_?9?9*9?9*9,27.0,22.1,79,98090,0,1400,428,0,0,0,0,0,0,0,180,1.8,8,8,777.7,77777,9,999999999,0,0.0000,0,0,999.000,0.9,99.0
2010,2,17,22,0,?9?9?9?9E0?9?9?9?9*9?9?9?9?9*9?9*9*9?9*_?9?9*9?9*9,26.4,22.0,81,98090,0,1400,425,0,0,0,0,0,0,0,180,1.8,8,8,777.7,77777,9,999999999,0,0.0000,0,0,999.000,0.0,99.0
2010,2,17,23,0,?9?9?9?9E0?9?9?9?9*9?9?9?9?9*9?9*9*9?9*_?9?9*9?9*9,25.9,21.8,83,98090,0,1400,421,0,0,0,0,0,0,0,180,1.8,8,8,777.7,77777,9,999999999,0,0.0000,0,0,999.000,0.0,99.0
2010,2,17,24,0,?9?9?9?9E0?9?9?9?9*9?9?9?9?9*9?9*9*9?9*_?9?9*9?9*9,25.3,22.5,94,98090,0,1400,419,0,0,0,0,0,0,0,180,1.6,8,8,777.7,77777,9,999999999,10,0.0000,0,0,999.000,10.1,99.0
2010,2,18,1,0,?9?9?9?9E0?9?9?9?9*9?9?9?9?9*9?9*9*9?9*_?9?9*9?9*9,25.0,22.5,86,98090,0,1400,417,0,0,0,0,0,0,0,180,1.6,8,8,777.7,77777,9,999999999,0,0.0000,0,0,999.000,0.7,99.0
2010,2,18,2,0,?9?9?9?9E0?9?9?9?9*9?9?9?9?9*9?9*9*9?9*_?9?9*9?9*9,24.7,22.4,87,98090,0,1400,409,0,0,0,0,0,0,0,180,1.6,7,7,777.7,77777,9,999999999,0,0.0000,0,0,999.000,0.3,99.0
2010,2,18,3,0,?9?9?9?9E0?9?9?9?9*9?9?9?9?9*9?9*9*9?9*_?9?9*9?9*9,24.5,22.4,89,98090,0,1400,407,0,0,0,0,0,0,0,180,1.6,7,7,777.7,77777,9,999999999,0,0.0000,0,0,999.000,0.2,99.0
2010,2,18,4,0,?9?9?9?9E0?9?9?9?9*9?9?9?9?9*9?9*9*9?9*_?9?9*9?9*9,24.2,22.4,90,98090,0,1399,406,0,0,0,0,0,0,0,180,1.6,7,7,777.7,77777,9,999999999,0,0.0000,0,0,999.000,0.0,99.0
2010,2,18,5,0,?9?9?9?9E0?9?9?9?9*9?9?9?9?9*9?9*9*9?9*_?9?9*9?9*9,23.9,22.4,87,98090,0,1399,404,0,0,0,0,0,0,0,180,1.6,7,7,777.7,77777,9,999999999,0,0.0000,0,0,999.000,0.0,99.0
2010,2,18,6,0,?9?9?9?9E0?9?9?9?9*9?9?9?9?9*9?9*9*9?9*_?9?9*9?9*9,23.7,22.3,88,98090,0,1399,403,0,0,0,0,0,0,0,180,1.6,7,7,777.7,77777,9,999999999,0,0.0000,0,0,999.000,0.0,99.0
2010,2,18,7,0,?9?9?9?9E0?9?9?9?9*9?9?9?9?9*9?9*9*9?9*_?9?9*9?9*9,23.5,22.3,88,98090,267,1399,402,11,0,11,1271,0,1165,18,180,1.6,7,7,777.7,77777,9,999999999,0,0.0000,0,0,999.000,0.0,99.0
2010,2,18,8,0,?9?9?9?9E0?9?9?9?9*9?9?9?9?9*9?9*9*9?9*_?9?9*9?9*9,23.3,22.3,89,98090,587,1399,401,179,38,163,21488,3623,17939,124,180,1.6,7,7,777.7,77777,9,999999999,0,0.0000,0,0,999.000,0.0,99.0
2010,2,18,9,0,?9?9?9?9E0?9?9?9?9*9?9?9?9?9*9?9*9*9?9*_?9?9*9?9*9,26.3,22.6,77,98090,876,1399,413,381,130,300,45763,12363,32989,153,180,1.6,6,6,777.7,77777,9,999999999,0,0.0000,0,0,999.000,0.0,99.0
2010,2,18,10,0,?9?9?9?9E0?9?9?9?9*9?9?9?9?9*9?9*9*9?9*_?9?9*9?9*9,27.3,22.7,74,98090,1113,1399,415,562,222,386,67427,21058,42425,154,180,2.4,5,5,777.7,77777,9,999999999,0,0.0000,0,0,999.000,0.0,99.0
2010,2,18,11,0,?9?9?9?9E0?9?9?9?9*9?9?9?9?9*9?9*9*9?9*_?9?9*9?9*9,28.2,22.8,71,98090,1280,1399,420,702,160,556,84281,15164,61195,194,180,3.0,5,5,777.7,77777,9,999999999,0,0.0000,0,0,999.000,0.0,99.0
2010,2,18,12,0,?9?9?9?9E0?9?9?9?9*9?9?9?9?9*9?9*9*9?9*_?9?9*9?9*9,28.9,22.9,69,98090,1368,1399,424,791,335,464,94970,31830,51035,151,180,3.8,5,5,777.7,77777,9,999999999,0,0.0000,0,0,999.000,0.0,99.0
2010,2,18,13,0,?9?9?9?9E0?9?9?9?9*9?9?9?9?9*9?9*9*9?9*_?9?9*9?9*9,29.5,22.9,67,98090,1369,1399,424,822,387,444,98696,36800,48788,144,180,4.7,4,4,777.7,77777,9,999999999,0,0.0000,0,0,999.000,0.0,99.0
2010,2,18,14,0,?9?9?9?9E0?9?9?9?9*9?9?9?9?9*9?9*9*9?9*_?9?9*9?9*9,29.8,23.0,66,98090,1284,1399,429,793,469,363,95183,44570,39902,126,180,5.7,5,5,777.7,77777,9,999999999,0,0.0000,0,0,999.000,0.0,99.0
2010,2,18,15,0,?9?9?9?9E0?9?9?9?9*9?9?9?9?9*9?9*9*9?9*_?9?9*9?9*9,29.9,23.0,66,98090,1118,1399,430,706,521,289,84685,49504,31820,115,180,5.5,5,5,777.7,77777,9,999999999,0,0.0000,0,0,999.000,0.0,99.0
2010,2,18,16,0,?9?9?9?9E0?9?9?9?9*9?9?9?9?9*9?9*9*9?9*_?9?9*9?9*9,29.8,23.0,66,98090,884,1399,430,567,608,183,67988,57751,20106,92,180,5.2,5,5,777.7,77777,9,999999999,0,0.0000,0,0,999.000,0.0,99.0
2010,2,18,17,0,?9?9?9?9E0?9?9?9?9*9?9?9?9?9*9?9*9*9?9*_?9?9*9?9*9,29.4,22.9,71,98090,596,1399,431,387,641,114,46426,60876,12569,85,180,4.7,6,6,777.7,77777,9,999999999,0,0.0000,0,0,999.000,0.0,99.0
2010,2,18,18,0,?9?9?9?9E0?9?9?9?9*9?9?9?9?9*9?9*9*9?9*_?9?9*9?9*9,28.8,22.8,73,98090,275,1399,432,185,426,101,22157,40442,11156,165,180,3.2,7,7,777.7,77777,9,999999999,0,0.0000,0,0,999.000,0.4,99.0
2010,2,18,19,0,?9?9?9?9E0?9?9?9?9*9?9?9?9?9*9?9*9*9?9*_?9?9*9?9*9,28.2,22.8,75,98090,0,1399,429,13,0,0,1548,0,0,0,180,2.0,7,7,777.7,77777,9,999999999,0,0.0000,0,0,999.000,0.1,99.0
2010,2,18,20,0,?9?9?9?9E0?9?9?9?9*9?9?9?9?9*9?9*9*9?9*_?9?9*9?9*9,27.7,22.7,77,98090,0,1399,426,0,0,0,0,0,0,0,180,1.6,7,7,777.7,77777,9,999999999,0,0.0000,0,0,999.000,0.1,99.0
2010,2,18,21,0,?9?9?9?9E0?9?9?9?9*9?9?9?9?9*9?9*9*9?9*_?9?9*9?9*9,27.1,22.7,79,98090,0,1399,422,0,0,0,0,0,0,0,180,1.6,7,7,777.7,77777,9,999999999,0,0.0000,0,0,999.000,0.0,99.0
2010,2,18,22,0,?9?9?9?9E0?9?9?9?9*9?9?9?9?9*9?9*9*9?9*_?9?9*9?9*9,26.5,22.6,81,98090,0,1399,419,0,0,0,0,0,0,0,180,1.6,7,7,777.7,77777,9,999999999,0,0.0000,0,0,999.000,0.0,99.0
2010,2,18,23,0,?9?9?9?9E0?9?9?9?9*9?9?9?9?9*9?9*9*9?9*_?9?9*9?9*9,26.0,22.6,83,98090,0,1399,416,0,0,0,0,0,0,0,180,1.6,7,7,777.7,77777,9,999999999,0,0.0000,0,0,999.000,0.1,99.0
2010,2,18,24,0,?9?9?9?9E0?9?9?9?9*9?9?9?9?9*9?9*9*9?9*_?9?9*9?9*9,25.5,21.6,79,98090,0,1399,412,0,0,0,0,0,0,0,180,1.5,7,7,777.7,77777,9,999999999,0,0.0000,0,0,999.000,0.3,99.0
2010,2,19,1,0,?9?9?9?9E0?9?9?9?9*9?9?9?9?9*9?9*9*9?9*_?9?9*9?9*9,25.2,21.7,80,98090,0,1399,417,0,0,0,0,0,0,0,180,1.5,8,8,777.7,77777,9,999999999,0,0.0000,0,0,999.000,0.9,99.0
2010,2,19,2,0,?9?9?9?9E0?9?9?9?9*9?9?9?9?9*9?9*9*9?9*_?9?9*9?9*9,24.9,21.7,82,98090,0,1399,416,0,0,0,0,0,0,0,180,1.5,8,8,777.7,77777,9,999999999,0,0.0000,0,0,999.000,0.2,99.0
2010,2,19,3,0,?9?9?9?9E0?9?9?9?9*9?9?9?9?9*9?9*9*9?9*_?9?9*9?9*9,24.6,21.8,79,98090,0,1399,414,0,0,0,0,0,0,0,180,1.5,8,8,777.7,77777,9,999999999,0,0.0000,0,0,999.000,0.0,99.0
2010,2,19,4,0,?9?9?9?9E0?9?9?9?9*9?9?9?9?9*9?9*9*9?9*_?9?9*9?9*9,24.3,21.8,84,98090,0,1399,413,0,0,0,0,0,0,0,180,1.5,8,8,777.7,77777,9,999999999,0,0.0000,0,0,999.000,0.0,99.0
2010,2,19,5,0,?9?9?9?9E0?9?9?9?9*9?9?9?9?9*9?9*9*9?9*_?9?9*9?9*9,24.1,21.9,85,98090,0,1399,411,0,0,0,0,0,0,0,180,1.5,8,8,777.7,77777,9,999999999,0,0.0000,0,0,999.000,0.1,99.0
2010,2,19,6,0,?9?9?9?9E0?9?9?9?9*9?9?9?9?9*9?9*9*9?9*_?9?9*9?9*9,23.9,21.9,86,98090,0,1399,410,0,0,0,0,0,0,0,180,1.5,8,8,777.7,77777,9,999999999,0,0.0000,0,0,999.000,0.2,99.0
2010,2,19,7,0,?9?9?9?9E0?9?9?9?9*9?9?9?9?9*9?9*9*9?9*_?9?9*9?9*9,23.7,21.9,91,98090,264,1399,409,27,0,27,3282,0,3009,46,180,1.5,8,8,777.7,77777,9,999999999,1,0.0000,0,0,999.000,1.6,99.0
2010,2,19,8,0,?9?9?9?9E0?9?9?9?9*9?9?9?9?9*9?9*9*9?9*_?9?9*9?9*9,23.5,22.0,88,98090,585,1399,408,167,26,157,20093,2446,17235,119,180,1.5,8,8,777.7,77777,9,999999999,0,0.0000,0,0,999.000,0.4,99.0
2010,2,19,9,0,?9?9?9?9E0?9?9?9?9*9?9?9?9?9*9?9*9*9?9*_?9?9*9?9*9,26.3,21.5,76,98090,874,1399,417,313,46,284,37512,4392,31210,145,180,1.5,7,7,777.7,77777,9,999999999,0,0.0000,0,0,999.000,0.1,99.0
2010,2,19,10,0,?9?9?9?9E0?9?9?9?9*9?9?9?9?9*9?9*9*9?9*_?9?9*9?9*9,27.5,21.3,68,98090,1110,1399,415,550,229,368,65986,21736,40507,148,180,2.2,5,5,777.7,77777,9,999999999,0,0.0000,0,0,999.000,0.0,99.0
2010,2,19,11,0,?9?9?9?9E0?9?9?9?9*9?9?9?9?9*9?9*9*9?9*_?9?9*9?9*9,27.1,21.3,73,98090,1278,1399,427,184,7,178,22106,626,19602,62,180,3.8,8,8,777.7,77777,9,999999999,0,0.0000,0,0,999.000,0.1,99.0
2010,2,19,12,0,?9?9?9?9E0?9?9?9?9*9?9?9?9?9*9?9*9*9?9*_?9?9*9?9*9,27.5,21.3,71,98090,1366,1399,430,480,37,444,57578,3504,48819,145,180,4.5,8,8,777.7,77777,9,999999999,0,0.0000,0,0,999.000,0.0,99.0
2010,2,19,13,0,?9?9?9?9E0?9?9?9?9*9?9?9?9?9*9?9*9*9?9*_?9?9*9?9*9,27.8,21.2,67,98090,1367,1399,431,499,50,449,59836,4789,49431,146,180,4.6,8,8,777.7,77777,9,999999999,0,0.0000,0,0,999.000,0.0,99.0
2010,2,19,14,0,?9?9?9?9E0?9?9?9?9*9?9?9?9?9*9?9*9*9?9*_?9?9*9?9*9,28.0,21.2,70,98090,1282,1399,432,481,59,427,57695,5569,46978,148,180,5.0,8,8,777.7,77777,9,999999999,0,0.0000,0,0,999.000,0.6,99.0
2010,2,19,15,0,?9?9?9?9E0?9?9?9?9*9?9?9?9?9*9?9*9*9?9*_?9?9*9?9*9,28.1,21.2,66,98090,1116,1399,433,428,52,386,51311,4977,42438,154,180,5.3,8,8,777.7,77777,9,999999999,0,0.0000,0,0,999.000,0.0,99.0
2010,2,19,16,0,?9?9?9?9E0?9?9?9?9*9?9?9?9?9*9?9*9*9?9*_?9?9*9?9*9,28.0,21.2,66,98090,881,1399,432,343,55,309,41161,5192,33946,156,180,5.2,8,8,777.7,77777,9,999999999,0,0.0000,0,0,999.000,0.0,99.0
2010,2,19,17,0,?9?9?9?9E0?9?9?9?9*9?9?9?9?9*9?9*9*9?9*_?9?9*9?9*9,27.7,21.2,67,98090,593,1399,431,234,112,186,28058,10683,20484,140,180,4.8,8,8,777.7,77777,9,999999999,0,0.0000,0,0,999.000,0.0,99.0
2010,2,19,18,0,?9?9?9?9E0?9?9?9?9*9?9?9?9?9*9?9*9*9?9*_?9?9*9?9*9,27.2,21.3,72,98090,272,1399,428,111,237,65,13318,22557,7165,107,180,3.9,8,8,777.7,77777,9,999999999,0,0.0000,0,0,999.000,0.0,99.0
2010,2,19,19,0,?9?9?9?9E0?9?9?9?9*9?9?9?9?9*9?9*9*9?9*_?9?9*9?9*9,26.8,21.4,74,98090,0,1399,419,7,0,0,872,0,0,0,180,2.5,7,7,777.7,77777,9,999999999,0,0.0000,0,0,999.000,0.0,99.0
2010,2,19,20,0,?9?9?9?9E0?9?9?9?9*9?9?9?9?9*9?9*9*9?9*_?9?9*9?9*9,26.4,21.5,83,98090,0,1399,417,0,0,0,0,0,0,0,180,1.5,7,7,777.7,77777,9,999999999,20,0.0000,0,0,999.000,20.2,99.0
2010,2,19,21,0,?9?9?9?9E0?9?9?9?9*9?9?9?9?9*9?9*9*9?9*_?9?9*9?9*9,26.0,21.5,77,98090,0,1399,410,0,0,0,0,0,0,0,180,1.5,6,6,777.7,77777,9,999999999,0,0.0000,0,0,999.000,0.1,99.0
2010,2,19,22,0,?9?9?9?9E0?9?9?9?9*9?9?9?9?9*9?9*9*9?9*_?9?9*9?9*9,25.5,21.6,75,98090,0,1399,408,0,0,0,0,0,0,0,180,1.5,6,6,777.7,77777,9,999999999,0,0.0000,0,0,999.000,0.0,99.0
2010,2,19,23,0,?9?9?9?9E0?9?9?9?9*9?9?9?9?9*9?9*9*9?9*_?9?9*9?9*9,25.1,21.7,77,98090,0,1399,402,0,0,0,0,0,0,0,180,1.5,5,5,777.7,77777,9,999999999,0,0.0000,0,0,999.000,0.0,99.0
2010,2,19,24,0,?9?9?9?9E0?9?9?9?9*9?9?9?9?9*9?9*9*9?9*_?9?9*9?9*9,24.7,21.3,81,98090,0,1399,399,0,0,0,0,0,0,0,180,1.9,5,5,777.7,77777,9,999999999,0,0.0000,0,0,999.000,0.0,99.0
2010,2,20,1,0,?9?9?9?9E0?9?9?9?9*9?9?9?9?9*9?9*9*9?9*_?9?9*9?9*9,24.5,21.3,82,98090,0,1399,395,0,0,0,0,0,0,0,180,1.9,4,4,777.7,77777,9,999999999,0,0.0000,0,0,999.000,0.0,99.0
2010,2,20,2,0,?9?9?9?9E0?9?9?9?9*9?9?9?9?9*9?9*9*9?9*_?9?9*9?9*9,24.3,21.3,83,98090,0,1399,391,0,0,0,0,0,0,0,180,1.9,3,3,777.7,77777,9,999999999,0,0.0000,0,0,999.000,0.0,99.0
2010,2,20,3,0,?9?9?9?9E0?9?9?9?9*9?9?9?9?9*9?9*9*9?9*_?9?9*9?9*9,24.1,21.3,84,98090,0,1399,390,0,0,0,0,0,0,0,180,1.9,3,3,777.7,77777,9,999999999,0,0.0000,0,0,999.000,0.0,99.0
2010,2,20,4,0,?9?9?9?9E0?9?9?9?9*9?9?9?9?9*9?9*9*9?9*_?9?9*9?9*9,23.9,21.3,85,98090,0,1398,385,0,0,0,0,0,0,0,180,1.9,2,2,777.7,77777,9,999999999,0,0.0000,0,0,999.000,0.0,99.0
2010,2,20,5,0,?9?9?9?9E0?9?9?9?9*9?9?9?9?9*9?9*9*9?9*_?9?9*9?9*9,23.7,21.2,86,98090,0,1398,384,0,0,0,0,0,0,0,180,1.9,2,2,777.7,77777,9,999999999,0,0.0000,0,0,999.000,0.0,99.0
2010,2,20,6,0,?9?9?9?9E0?9?9?9?9*9?9?9?9?9*9?9*9*9?9*_?9?9*9?9*9,23.5,21.2,86,98090,0,1398,378,0,0,0,0,0,0,0,180,1.9,1,1,777.7,77777,9,999999999,0,0.0000,0,0,999.000,0.0,99.0
2010,2,20,7,0,?9?9?9?9E0?9?9?9?9*9?9?9?9?9*9?9*9*9?9*_?9?9*9?9*9,23.4,21.2,87,98090,262,1398,377,20,0,20,2406,0,2206,34,180,1.9,1,1,777.7,77777,9,999999999,0,0.0000,0,0,999.000,0.0,99.0
2010,2,20,8,0,?9?9?9?9E0?9?9?9?9*9?9?9?9?9*9?9*9*9?9*_?9?9*9?9*9,23.3,21.2,88,98090,583,1398,370,303,311,174,36395,29500,19139,133,180,1.9,0,0,777.7,77777,9,999999999,0,0.0000,0,0,999.000,0.0,99.0
2010,2,20,9,0,?9?9?9?9E0?9?9?9?9*9?9?9?9?9*9?9*9*9?9*_?9?9*9?9*9,27.0,21.5,71,98090,872,1398,409,442,237,294,53059,22506,32391,150,180,1.9,4,4,777.7,77777,9,999999999,0,0.0000,0,0,999.000,0.0,99.0
2010,2,20,10,0,?9?9?9?9E0?9?9?9?9*9?9?9?9?9*9?9*9*9?9*_?9?9*9?9*9,27.2,21.5,76,98090,1108,1398,422,424,96,347,50838,9137,38214,139,180,1.9,7,7,777.7,77777,9,999999999,0,0.0000,0,0,999.000,0.0,99.0
2010,2,20,11,0,?9?9?9?9E0?9?9?9?9*9?9?9?9?9*9?9*9*9?9*_?9?9*9?9*9,26.6,21.5,78,98090,1276,1398,425,159,11,149,19129,1040,16436,52,180,1.9,8,8,777.7,77777,9,999999999,0,0.0000,0,0,999.000,0.0,99.0
2010,2,20,12,0,?9?9?9?9E0?9?9?9?9*9?9?9?9?9*9?9*9*9?9*_?9?9*9?9*9,27.5,21.5,69,98090,1363,1398,415,758,437,332,90910,41469,36506,108,180,2.7,5,5,777.7,77777,9,999999999,0,0.0000,0,0,999.000,0.0,99.0
2010,2,20,13,0,?9?9?9?9E0?9?9?9?9*9?9?9?9?9*9?9*9*9?9*_?9?9*9?9*9,28.5,21.6,66,98090,1364,1398,397,1046,806,260,125569,76583,28561,85,180,3.8,0,0,777.7,77777,9,999999999,0,0.0000,0,0,999.000,0.0,99.0
2010,2,20,14,0,?9?9?9?9E0?9?9?9?9*9?9?9?9?9*9?9*9*9?9*_?9?9*9?9*9,29.1,21.6,64,98090,1279,1398,408,911,603,359,109316,57267,39544,125,180,4.2,1,1,777.7,77777,9,999999999,0,0.0000,0,0,999.000,0.0,99.0
2010,2,20,15,0,?9?9?9?9E0?9?9?9?9*9?9?9?9?9*9?9*9*9?9*_?9?9*9?9*9,28.6,21.6,75,98090,1113,1398,436,349,45,313,41880,4267,34457,125,180,5.2,8,8,777.7,77777,9,999999999,1,0.0000,0,0,999.000,1.8,99.0
2010,2,20,16,0,?9?9?9?9E0?9?9?9?9*9?9?9?9?9*9?9*9*9?9*_?9?9*9?9*9,28.3,21.6,72,98090,878,1398,434,373,123,295,44700,11703,32469,150,180,5.4,8,8,777.7,77777,9,999999999,0,0.0000,0,0,999.000,0.1,99.0
2010,2,20,17,0,?9?9?9?9E0?9?9?9?9*9?9?9?9?9*9?9*9*9?9*_?9?9*9?9*9,28.0,21.5,67,98090,590,1398,421,391,574,149,46922,54513,16429,113,180,4.5,6,6,777.7,77777,9,999999999,0,0.0000,0,0,999.000,0.0,99.0
2010,2,20,18,0,?9?9?9?9E0?9?9?9?9*9?9?9?9?9*9?9*9*9?9*_?9?9*9?9*9,27.5,21.5,69,98090,268,1398,423,196,413,118,23560,39207,12945,197,180,3.6,7,7,777.7,77777,9,999999999,0,0.0000,0,0,999.000,0.0,99.0
2010,2,20,19,0,?9?9?9?9E0?9?9?9?9*9?9?9?9?9*9?9*9*9?9*_?9?9*9?9*9,27.0,21.5,71,98090,0,1398,421,17,0,0,2024,0,0,0,180,2.3,7,7,777.7,77777,9,999999999,0,0.0000,0,0,999.000,0.0,99.0
2010,2,20,20,0,?9?9?9?9E0?9?9?9?9*9?9?9?9?9*9?9*9*9?9*_?9?9*9?9*9,26.5,21.5,78,98090,0,1398,418,0,0,0,0,0,0,0,180,1.9,7,7,777.7,77777,9,999999999,0,0.0000,0,0,999.000,0.0,99.0
2010,2,20,21,0,?9?9?9?9E0?9?9?9?9*9?9?9?9?9*9?9*9*9?9*_?9?9*9?9*9,26.0,21.4,80,98090,0,1398,415,0,0,0,0,0,0,0,180,1.9,7,7,777.7,77777,9,999999999,0,0.0000,0,0,999.000,0.1,99.0
2010,2,20,22,0,?9?9?9?9E0?9?9?9?9*9?9?9?9?9*9?9*9*9?9*_?9?9*9?9*9,25.6,21.4,82,98090,0,1398,412,0,0,0,0,0,0,0,180,1.9,7,7,777.7,77777,9,999999999,0,0.0000,0,0,999.000,0.0,99.0
2010,2,20,23,0,?9?9?9?9E0?9?9?9?9*9?9?9?9?9*9?9*9*9?9*_?9?9*9?9*9,25.1,21.3,84,98090,0,1398,410,0,0,0,0,0,0,0,180,1.9,7,7,777.7,77777,9,999999999,0,0.0000,0,0,999.000,0.0,99.0
2010,2,20,24,0,?9?9?9?9E0?9?9?9?9*9?9?9?9?9*9?9*9*9?9*_?9?9*9?9*9,24.6,21.5,84,98090,0,1398,407,0,0,0,0,0,0,0,180,2.1,7,7,777.7,77777,9,999999999,0,0.0000,0,0,999.000,0.2,99.0
2010,2,21,1,0,?9?9?9?9E0?9?9?9?9*9?9?9?9?9*9?9*9*9?9*_?9?9*9?9*9,24.3,21.5,85,98090,0,1398,412,0,0,0,0,0,0,0,180,2.1,8,8,777.7,77777,9,999999999,0,0.0000,0,0,999.000,0.2,99.0
2010,2,21,2,0,?9?9?9?9E0?9?9?9?9*9?9?9?9?9*9?9*9*9?9*_?9?9*9?9*9,24.1,21.5,86,98090,0,1398,411,0,0,0,0,0,0,0,180,2.1,8,8,777.7,77777,9,999999999,0,0.0000,0,0,999.000,0.1,99.0
2010,2,21,3,0,?9?9?9?9E0?9?9?9?9*9?9?9?9?9*9?9*9*9?9*_?9?9*9?9*9,23.8,21.6,83,98090,0,1398,409,0,0,0,0,0,0,0,180,2.1,8,8,777.7,77777,9,999999999,0,0.0000,0,0,999.000,0.0,99.0
2010,2,21,4,0,?9?9?9?9E0?9?9?9?9*9?9?9?9?9*9?9*9*9?9*_?9?9*9?9*9,23.6,21.6,84,98090,0,1397,408,0,0,0,0,0,0,0,180,2.1,8,8,777.7,77777,9,999999999,0,0.0000,0,0,999.000,0.0,99.0
2010,2,21,5,0,?9?9?9?9E0?9?9?9?9*9?9?9?9?9*9?9*9*9?9*_?9?9*9?9*9,23.3,21.6,86,98090,0,1397,407,0,0,0,0,0,0,0,180,2.1,8,8,777.7,77777,9,999999999,0,0.0000,0,0,999.000,0.0,99.0
2010,2,21,6,0,?9?9?9?9E0?9?9?9?9*9?9?9?9?9*9?9*9*9?9*_?9?9*9?9*9,23.1,21.6,91,98090,0,1397,406,0,0,0,0,0,0,0,180,2.1,8,8,777.7,77777,9,999999999,0,0.0000,0,0,999.000,0.0,99.0
2010,2,21,7,0,?9?9?9?9E0?9?9?9?9*9?9?9?9?9*9?9*9*9?9*_?9?9*9?9*9,23.0,21.6,92,98090,259,1397,405,8,0,8,1013,0,928,15,180,2.1,8,8,777.7,77777,9,999999999,0,0.0000,0,0,999.000,0.1,99.0
2010,2,21,8,0,?9?9?9?9E0?9?9?9?9*9?9?9?9?9*9?9*9*9?9*_?9?9*9?9*9,22.8,21.7,93,98090,581,1397,404,167,26,156,19994,2429,17161,120,180,2.1,8,8,777.7,77777,9,999999999,0,0.0000,0,0,999.000,0.0,99.0
2010,2,21,9,0,?9?9?9?9E0?9?9?9?9*9?9?9?9?9*9?9*9*9?9*_?9?9*9?9*9,25.4,21.4,76,98090,870,1397,407,359,105,294,43074,9982,32293,150,180,2.1,6,6,777.7,77777,9,999999999,0,0.0000,0,0,999.000,0.0,99.0
2010,2,21,10,0,?9?9?9?9E0?9?9?9?9*9?9?9?9?9*9?9*9*9?9*_?9?9*9?9*9,26.3,21.4,72,98090,1106,1397,412,531,181,387,63671,17197,42602,156,180,2.1,6,6,777.7,77777,9,999999999,0,0.0000,0,0,999.000,0.0,99.0
2010,2,21,11,0,?9?9?9?9E0?9?9?9?9*9?9?9?9?9*9?9*9*9?9*_?9?9*9?9*9,27.1,21.3,69,98090,1274,1397,412,664,131,545,79685,12403,59951,190,180,2.5,5,5,777.7,77777,9,999999999,0,0.0000,0,0,999.000,0.0,99.0
2010,2,21,12,0,?9?9?9?9E0?9?9?9?9*9?9?9?9?9*9?9*9*9?9*_?9?9*9?9*9,27.7,21.2,67,98090,1361,1397,415,749,153,600,89828,14527,65957,196,180,3.2,5,5,777.7,77777,9,999999999,0,0.0000,0,0,999.000,0.0,99.0
2010,2,21,13,0,?9?9?9?9E0?9?9?9?9*9?9?9?9?9*9?9*9*9?9*_?9?9*9?9*9,28.2,21.2,65,98090,1362,1397,418,778,318,468,93340,30235,51437,153,180,3.8,5,5,777.7,77777,9,999999999,0,0.0000,0,0,999.000,0.0,99.0
2010,2,21,14,0,?9?9?9?9E0?9?9?9?9*9?9?9?9?9*9?9*9*9?9*_?9?9*9?9*9,28.5,21.1,64,98090,1276,1397,419,750,373,409,89960,35419,45003,143,180,5.0,5,5,777.7,77777,9,999999999,0,0.0000,0,0,999.000,0.0,99.0
2010,2,21,15,0,?9?9?9?9E0?9?9?9?9*9?9?9?9?9*9?9*9*9?9*_?9?9*9?9*9,28.6,21.1,64,98090,1110,1397,420,666,414,337,79937,39374,37058,135,180,4.9,5,5,777.7,77777,9,999999999,0,0.0000,0,0,999.000,0.0,99.0
2010,2,21,16,0,?9?9?9?9E0?9?9?9?9*9?9?9?9?9*9?9*9*9?9*_?9?9*9?9*9,28.5,21.1,68,98090,875,1397,423,533,498,222,64018,47276,24430,113,180,4.7,6,6,777.7,77777,9,999999999,0,0.0000,0,0,999.000,0.6,99.0
2010,2,21,17,0,?9?9?9?9E0?9?9?9?9*9?9?9?9?9*9?9*9*9?9*_?9?9*9?9*9,28.1,21.2,65,98090,586,1397,421,362,550,132,43478,52234,14520,100,180,3.3,6,6,777.7,77777,9,999999999,0,0.0000,0,0,999.000,0.0,99.0
2010,2,21,18,0,?9?9?9?9E0?9?9?9?9*9?9?9?9?9*9?9*9*9?9*_?9?9*9?9*9,27.5,21.2,80,98090,265,1397,430,170,419,91,20395,39773,10037,154,180,2.4,8,8,777.7,77777,9,999999999,8,0.0000,0,0,999.000,8.4,99.0
2010,2,21,19,0,?9?9?9?9E0?9?9?9?9*9?9?9?9?9*9?9*9*9?9*_?9?9*9?9*9,27.0,21.3,74,98090,0,1397,427,10,0,0,1159,0,0,0,180,2.1,8,8,777.7,77777,9,999999999,0,0.0000,0,0,999.000,0.1,99.0
2010,2,21,20,0,?9?9?9?9E0?9?9?9?9*9?9?9?9?9*9?9*9*9?9*_?9?9*9?9*9,26.5,21.3,76,98090,0,1397,418,0,0,0,0,0,0,0,180,2.1,7,7,777.7,77777,9,999999999,0,0.0000,0,0,999.000,0.3,99.0
2010,2,21,21,0,?9?9?9?9E0?9?9?9?9*9?9?9?9?9*9?9*9*9?9*_?9?9*9?9*9,26.0,21.4,78,98090,0,1397,415,0,0,0,0,0,0,0,180,2.1,7,7,777.7,77777,9,999999999,0,0.0000,0,0,999.000,0.0,99.0
2010,2,21,22,0,?9?9?9?9E0?9?9?9?9*9?9?9?9?9*9?9*9*9?9*_?9?9*9?9*9,25.5,21.4,80,98090,0,1397,412,0,0,0,0,0,0,0,180,2.1,7,7,777.7,77777,9,999999999,0,0.0000,0,0,999.000,0.0,99.0
2010,2,21,23,0,?9?9?9?9E0?9?9?9?9*9?9?9?9?9*9?9*9*9?9*_?9?9*9?9*9,25.1,21.5,78,98090,0,1397,410,0,0,0,0,0,0,0,180,2.1,7,7,777.7,77777,9,999999999,0,0.0000,0,0,999.000,0.0,99.0
2010,2,21,24,0,?9?9?9?9E0?9?9?9?9*9?9?9?9?9*9?9*9*9?9*_?9?9*9?9*9,24.6,21.6,88,98090,0,1397,402,0,0,0,0,0,0,0,180,1.9,6,6,777.7,77777,9,999999999,0,0.0000,0,0,999.000,0.0,99.0
2010,2,22,1,0,?9?9?9?9E0?9?9?9?9*9?9?9?9?9*9?9*9*9?9*_?9?9*9?9*9,24.3,21.7,90,98090,0,1397,401,0,0,0,0,0,0,0,180,1.9,6,6,777.7,77777,9,999999999,0,0.0000,0,0,999.000,0.0,99.0
2010,2,22,2,0,?9?9?9?9E0?9?9?9?9*9?9?9?9?9*9?9*9*9?9*_?9?9*9?9*9,24.1,21.7,86,98090,0,1397,400,0,0,0,0,0,0,0,180,1.9,6,6,777.7,77777,9,999999999,0,0.0000,0,0,999.000,0.0,99.0
2010,2,22,3,0,?9?9?9?9E0?9?9?9?9*9?9?9?9?9*9?9*9*9?9*_?9?9*9?9*9,23.8,21.7,88,98090,0,1397,395,0,0,0,0,0,0,0,180,1.9,5,5,777.7,77777,9,999999999,0,0.0000,0,0,999.000,0.0,99.0
2010,2,22,4,0,?9?9?9?9E0?9?9?9?9*9?9?9?9?9*9?9*9*9?9*_?9?9*9?9*9,23.6,21.7,89,98090,0,1397,394,0,0,0,0,0,0,0,180,1.9,5,5,777.7,77777,9,999999999,0,0.0000,0,0,999.000,0.0,99.0
2010,2,22,5,0,?9?9?9?9E0?9?9?9?9*9?9?9?9?9*9?9*9*9?9*_?9?9*9?9*9,23.3,21.8,90,98090,0,1397,392,0,0,0,0,0,0,0,180,1.9,5,5,777.7,77777,9,999999999,0,0.0000,0,0,999.000,0.0,99.0
2010,2,22,6,0,?9?9?9?9E0?9?9?9?9*9?9?9?9?9*9?9*9*9?9*_?9?9*9?9*9,23.1,21.8,92,98090,0,1397,391,0,0,0,0,0,0,0,180,1.9,5,5,777.7,77777,9,999999999,0,0.0000,0,0,999.000,0.0,99.0
2010,2,22,7,0,?9?9?9?9E0?9?9?9?9*9?9?9?9?9*9?9*9*9?9*_?9?9*9?9*9,23.0,21.8,93,98090,257,1397,388,18,0,18,2186,0,2004,32,180,1.9,4,4,777.7,77777,9,999999999,0,0.0000,0,0,999.000,0.0,99.0
2010,2,22,8,0,?9?9?9?9E0?9?9?9?9*9?9?9?9?9*9?9*9*9?9*_?9?9*9?9*9,22.8,21.8,94,98090,578,1397,387,239,156,174,28630,14800,19157,134,180,1.9,4,4,777.7,77777,9,999999999,0,0.0000,0,0,999.000,0.0,99.0
2010,2,22,9,0,?9?9?9?9E0?9?9?9?9*9?9?9?9?9*9?9*9*9?9*_?9?9*9?9*9,27.9,21.4,67,98090,868,1397,393,562,571,208,67434,54224,22826,106,180,1.9,0,0,777.7,77777,9,999999999,0,0.0000,0,0,999.000,0.0,99.0
2010,2,22,10,0,?9?9?9?9E0?9?9?9?9*9?9?9?9?9*9?9*9*9?9*_?9?9*9?9*9,27.8,21.4,73,98090,1104,1397,431,376,61,328,45101,5792,36041,132,180,1.9,8,8,777.7,77777,9,999999999,0,0.0000,0,0,999.000,0.1,99.0
2010,2,22,11,0,?9?9?9?9E0?9?9?9?9*9?9?9?9?9*9?9*9*9?9*_?9?9*9?9*9,27.5,21.4,74,98090,1272,1397,430,282,14,269,33812,1303,29621,94,180,2.9,8,8,777.7,77777,9,999999999,0,0.0000,0,0,999.000,0.1,99.0
2010,2,22,12,0,?9?9?9?9E0?9?9?9?9*9?9?9?9?9*9?9*9*9?9*_?9?9*9?9*9,28.2,21.3,71,98090,1359,1397,427,656,150,510,78755,14241,56148,167,180,3.7,7,7,777.7,77777,9,999999999,0,0.0000,0,0,999.000,0.0,99.0
2010,2,22,13,0,?9?9?9?9E0?9?9?9?9*9?9?9?9?9*9?9*9*9?9*_?9?9*9?9*9,28.7,21.3,64,98090,1360,1397,430,682,106,579,81828,10047,63685,189,180,4.2,7,7,777.7,77777,9,999999999,0,0.0000,0,0,999.000,0.0,99.0
2010,2,22,14,0,?9?9?9?9E0?9?9?9?9*9?9?9?9?9*9?9*9*9?9*_?9?9*9?9*9,29.1,21.2,62,98090,1274,1397,432,657,125,543,78846,11891,59719,189,180,5.0,7,7,777.7,77777,9,999999999,0,0.0000,0,0,999.000,0.0,99.0
2010,2,22,15,0,?9?9?9?9E0?9?9?9?9*9?9?9?9?9*9?9*9*9?9*_?9?9*9?9*9,29.2,21.2,62,98090,1107,1397,433,584,186,436,70028,17653,47990,175,180,5.3,7,7,777.7,77777,9,999999999,0,0.0000,0,0,999.000,0.0,99.0
2010,2,22,16,0,?9?9?9?9E0?9?9?9?9*9?9?9?9?9*9?9*9*9?9*_?9?9*9?9*9,29.1,21.2,62,98090,872,1397,432,467,311,273,56033,29520,30045,139,180,4.9,7,7,777.7,77777,9,999999999,0,0.0000,0,0,999.000,0.0,99.0
2010,2,22,17,0,?9?9?9?9E0?9?9?9?9*9?9?9?9?9*9?9*9*9?9*_?9?9*9?9*9,28.7,21.3,69,98090,583,1397,430,317,398,151,37981,37780,16593,115,180,3.9,7,7,777.7,77777,9,999999999,0,0.0000,0,0,999.000,0.0,99.0
2010,2,22,18,0,?9?9?9?9E0?9?9?9?9*9?9?9?9?9*9?9*9*9?9*_?9?9*9?9*9,28.1,21.3,71,98090,261,1397,433,148,492,56,17706,46712,6204,97,180,2.4,8,8,777.7,77777,9,999999999,0,0.0000,0,0,999.000,0.1,99.0
2010,2,22,19,0,?9?9?9?9E0?9?9?9?9*9?9?9?9?9*9?9*9*9?9*_?9?9*9?9*9,27.6,21.4,73,98090,0,1397,430,8,0,0,930,0,0,0,180,2.1,8,8,777.7,77777,9,999999999,0,0.0000,0,0,999.000,0.2,99.0
2010,2,22,20,0,?9?9?9?9E0?9?9?9?9*9?9?9?9?9*9?9*9*9?9*_?9?9*9?9*9,27.2,21.4,75,98090,0,1397,428,0,0,0,0,0,0,0,180,2.1,8,8,777.7,77777,9,999999999,0,0.0000,0,0,999.000,0.3,99.0
2010,2,22,21,0,?9?9?9?9E0?9?9?9?9*9?9?9?9?9*9?9*9*9?9*_?9?9*9?9*9,26.7,21.5,78,98090,0,1397,425,0,0,0,0,0,0,0,180,1.9,8,8,777.7,77777,9,999999999,0,0.0000,0,0,999.000,0.4,99.0
2010,2,22,22,0,?9?9?9?9E0?9?9?9?9*9?9?9?9?9*9?9*9*9?9*_?9?9*9?9*9,26.2,21.5,80,98090,0,1397,423,0,0,0,0,0,0,0,180,1.9,8,8,777.7,77777,9,999999999,0,0.0000,0,0,999.000,0.7,99.0
2010,2,22,23,0,?9?9?9?9E0?9?9?9?9*9?9?9?9?9*9?9*9*9?9*_?9?9*9?9*9,25.8,21.5,92,98090,0,1397,420,0,0,0,0,0,0,0,180,1.9,8,8,777.7,77777,9,999999999,10,0.0000,0,0,999.000,10.1,99.0
2010,2,22,24,0,?9?9?9?9E0?9?9?9?9*9?9?9?9?9*9?9*9*9?9*_?9?9*9?9*9,25.3,21.5,81,98090,0,1397,418,0,0,0,0,0,0,0,180,1.6,8,8,777.7,77777,9,999999999,0,0.0000,0,0,999.000,0.1,99.0
2010,2,23,1,0,?9?9?9?9E0?9?9?9?9*9?9?9?9?9*9?9*9*9?9*_?9?9*9?9*9,25.1,21.6,78,98090,0,1397,416,0,0,0,0,0,0,0,180,1.6,8,8,777.7,77777,9,999999999,0,0.0000,0,0,999.000,0.0,99.0
2010,2,23,2,0,?9?9?9?9E0?9?9?9?9*9?9?9?9?9*9?9*9*9?9*_?9?9*9?9*9,24.9,21.7,83,98090,0,1397,415,0,0,0,0,0,0,0,180,1.6,8,8,777.7,77777,9,999999999,0,0.0000,0,0,999.000,0.1,99.0
2010,2,23,3,0,?9?9?9?9E0?9?9?9?9*9?9?9?9?9*9?9*9*9?9*_?9?9*9?9*9,24.6,21.8,85,98090,0,1397,414,0,0,0,0,0,0,0,180,1.6,8,8,777.7,77777,9,999999999,0,0.0000,0,0,999.000,0.0,99.0
2010,2,23,4,0,?9?9?9?9E0?9?9?9?9*9?9?9?9?9*9?9*9*9?9*_?9?9*9?9*9,24.4,21.9,86,98090,0,1396,413,0,0,0,0,0,0,0,180,1.6,8,8,777.7,77777,9,999999999,0,0.0000,0,0,999.000,0.1,99.0
2010,2,23,5,0,?9?9?9?9E0?9?9?9?9*9?9?9?9?9*9?9*9*9?9*_?9?9*9?9*9,24.1,22.0,83,98090,0,1396,412,0,0,0,0,0,0,0,180,1.6,8,8,777.7,77777,9,999999999,0,0.0000,0,0,999.000,0.0,99.0
2010,2,23,6,0,?9?9?9?9E0?9?9?9?9*9?9?9?9?9*9?9*9*9?9*_?9?9*9?9*9,24.0,22.0,84,98090,0,1396,411,0,0,0,0,0,0,0,180,1.6,8,8,777.7,77777,9,999999999,0,0.0000,0,0,999.000,0.0,99.0
2010,2,23,7,0,?9?9?9?9E0?9?9?9?9*9?9?9?9?9*9?9*9*9?9*_?9?9*9?9*9,23.8,22.1,85,98090,254,1396,410,7,0,7,883,0,810,13,180,1.6,8,8,777.7,77777,9,999999999,0,0.0000,0,0,999.000,0.0,99.0
2010,2,23,8,0,?9?9?9?9E0?9?9?9?9*9?9?9?9?9*9?9*9*9?9*_?9?9*9?9*9,23.7,22.1,91,98090,576,1396,409,162,22,153,19429,2069,16823,118,180,1.6,8,8,777.7,77777,9,999999999,0,0.0000,0,0,999.000,0.0,99.0
2010,2,23,9,0,?9?9?9?9E0?9?9?9?9*9?9?9?9?9*9?9*9*9?9*_?9?9*9?9*9,26.1,21.2,72,98090,866,1396,415,351,98,290,42170,9353,31944,149,180,1.6,7,7,777.7,77777,9,999999999,0,0.0000,0,0,999.000,0.0,99.0
2010,2,23,10,0,?9?9?9?9E0?9?9?9?9*9?9?9?9?9*9?9*9*9?9*_?9?9*9?9*9,26.9,20.9,68,98090,1102,1396,414,521,171,386,62465,16203,42450,156,180,1.6,6,6,777.7,77777,9,999999999,0,0.0000,0,0,999.000,0.0,99.0
2010,2,23,11,0,?9?9?9?9E0?9?9?9?9*9?9?9?9?9*9?9*9*9?9*_?9?9*9?9*9,27.6,20.6,64,98090,1270,1396,418,652,123,540,78234,11698,59396,189,180,2.2,6,6,777.7,77777,9,999999999,0,0.0000,0,0,999.000,0.0,99.0
2010,2,23,12,0,?9?9?9?9E0?9?9?9?9*9?9?9?9?9*9?9*9*9?9*_?9?9*9?9*9,28.2,20.3,61,98090,1357,1396,417,735,144,595,88208,13709,65432,195,180,4.0,5,5,777.7,77777,9,999999999,0,0.0000,0,0,999.000,0.0,99.0
2010,2,23,13,0,?9?9?9?9E0?9?9?9?9*9?9?9?9?9*9?9*9*9?9*_?9?9*9?9*9,28.6,20.1,59,98090,1357,1396,419,764,301,471,91643,28568,51849,154,180,4.4,5,5,777.7,77777,9,999999999,0,0.0000,0,0,999.000,0.0,99.0
2010,2,23,14,0,?9?9?9?9E0?9?9?9?9*9?9?9?9?9*9?9*9*9?9*_?9?9*9?9*9,28.9,20.0,58,98090,1271,1396,421,736,353,414,88282,33539,45569,145,180,5.4,5,5,777.7,77777,9,999999999,0,0.0000,0,0,999.000,0.0,99.0
2010,2,23,15,0,?9?9?9?9E0?9?9?9?9*9?9?9?9?9*9?9*9*9?9*_?9?9*9?9*9,29.0,20.0,58,98090,1104,1396,425,653,394,342,78370,37412,37579,137,180,5.1,6,6,777.7,77777,9,999999999,0,0.0000,0,0,999.000,0.0,99.0
2010,2,23,16,0,?9?9?9?9E0?9?9?9?9*9?9?9?9?9*9?9*9*9?9*_?9?9*9?9*9,28.9,20.0,58,98090,868,1396,424,522,470,230,62650,44670,25277,118,180,5.1,6,6,777.7,77777,9,999999999,0,0.0000,0,0,999.000,0.0,99.0
2010,2,23,17,0,?9?9?9?9E0?9?9?9?9*9?9?9?9?9*9?9*9*9?9*_?9?9*9?9*9,28.6,20.2,60,98090,579,1396,428,353,580,113,42380,55127,12412,87,180,4.5,7,7,777.7,77777,9,999999999,0,0.0000,0,0,999.000,0.0,99.0
2010,2,23,18,0,?9?9?9?9E0?9?9?9?9*9?9?9?9?9*9?9*9*9?9*_?9?9*9?9*9,28.0,20.4,66,98090,257,1396,432,164,414,88,19630,39336,9673,153,180,3.5,8,8,777.7,77777,9,999999999,0,0.0000,0,0,999.000,0.0,99.0
2010,2,23,19,0,?9?9?9?9E0?9?9?9?9*9?9?9?9?9*9?9*9*9?9*_?9?9*9?9*9,27.6,20.6,77,98090,0,1396,429,8,0,0,947,0,0,0,180,3.2,8,8,777.7,77777,9,999999999,5,0.0000,0,0,999.000,5.1,99.0
2010,2,23,20,0,?9?9?9?9E0?9?9?9?9*9?9?9?9?9*9?9*9*9?9*_?9?9*9?9*9,27.2,20.8,70,98090,0,1396,427,0,0,0,0,0,0,0,180,2.2,8,8,777.7,77777,9,999999999,0,0.0000,0,0,999.000,0.0,99.0
2010,2,23,21,0,?9?9?9?9E0?9?9?9?9*9?9?9?9?9*9?9*9*9?9*_?9?9*9?9*9,26.8,20.9,73,98090,0,1396,425,0,0,0,0,0,0,0,180,1.8,8,8,777.7,77777,9,999999999,0,0.0000,0,0,999.000,0.0,99.0
2010,2,23,22,0,?9?9?9?9E0?9?9?9?9*9?9?9?9?9*9?9*9*9?9*_?9?9*9?9*9,26.3,21.1,75,98090,0,1396,423,0,0,0,0,0,0,0,180,1.6,8,8,777.7,77777,9,999999999,0,0.0000,0,0,999.000,0.2,99.0
2010,2,23,23,0,?9?9?9?9E0?9?9?9?9*9?9?9?9?9*9?9*9*9?9*_?9?9*9?9*9,25.9,21.3,77,98090,0,1396,421,0,0,0,0,0,0,0,180,1.6,8,8,777.7,77777,9,999999999,0,0.0000,0,0,999.000,0.3,99.0
2010,2,23,24,0,?9?9?9?9E0?9?9?9?9*9?9?9?9?9*9?9*9*9?9*_?9?9*9?9*9,25.5,22.1,86,98090,0,1396,419,0,0,0,0,0,0,0,180,2.5,8,8,777.7,77777,9,999999999,3,0.0000,0,0,999.000,3.7,99.0
2010,2,24,1,0,?9?9?9?9E0?9?9?9?9*9?9?9?9?9*9?9*9*9?9*_?9?9*9?9*9,25.2,22.2,93,98090,0,1396,418,0,0,0,0,0,0,0,180,2.8,8,8,777.7,77777,9,999999999,87,0.0000,0,0,999.000,87.6,99.0
2010,2,24,2,0,?9?9?9?9E0?9?9?9?9*9?9?9?9?9*9?9*9*9?9*_?9?9*9?9*9,25.0,22.3,84,98090,0,1396,417,0,0,0,0,0,0,0,180,2.9,8,8,777.7,77777,9,999999999,0,0.0000,0,0,999.000,0.3,99.0
2010,2,24,3,0,?9?9?9?9E0?9?9?9?9*9?9?9?9?9*9?9*9*9?9*_?9?9*9?9*9,24.8,22.4,91,98090,0,1396,416,0,0,0,0,0,0,0,180,3.1,8,8,777.7,77777,9,999999999,1,0.0000,0,0,999.000,1.8,99.0
2010,2,24,4,0,?9?9?9?9E0?9?9?9?9*9?9?9?9?9*9?9*9*9?9*_?9?9*9?9*9,24.6,22.5,87,98090,0,1395,415,0,0,0,0,0,0,0,180,3.0,8,8,777.7,77777,9,999999999,0,0.0000,0,0,999.000,0.0,99.0
2010,2,24,5,0,?9?9?9?9E0?9?9?9?9*9?9?9?9?9*9?9*9*9?9*_?9?9*9?9*9,24.4,22.5,89,98090,0,1395,414,0,0,0,0,0,0,0,180,2.7,8,8,777.7,77777,9,999999999,0,0.0000,0,0,999.000,0.1,99.0
2010,2,24,6,0,?9?9?9?9E0?9?9?9?9*9?9?9?9?9*9?9*9*9?9*_?9?9*9?9*9,24.2,22.6,90,98090,0,1395,413,0,0,0,0,0,0,0,180,2.4,8,8,777.7,77777,9,999999999,0,0.0000,0,0,999.000,0.8,99.0
2010,2,24,7,0,?9?9?9?9E0?9?9?9?9*9?9?9?9?9*9?9*9*9?9*_?9?9*9?9*9,24.1,22.7,91,98090,252,1395,412,2,0,2,233,0,213,3,180,2.7,8,8,777.7,77777,9,999999999,0,0.0000,0,0,999.000,0.2,99.0
2010,2,24,8,0,?9?9?9?9E0?9?9?9?9*9?9?9?9?9*9?9*9*9?9*_?9?9*9?9*9,23.9,22.7,92,98090,574,1395,411,45,0,45,5396,0,4947,35,180,3.1,8,8,777.7,77777,9,999999999,0,0.0000,0,0,999.000,0.2,99.0
2010,2,24,9,0,?9?9?9?9E0?9?9?9?9*9?9?9?9?9*9?9*9*9?9*_?9?9*9?9*9,25.4,22.1,82,98090,863,1395,419,98,0,98,11754,0,10775,50,180,2.8,8,8,777.7,77777,9,999999999,0,0.0000,0,0,999.000,0.7,99.0
2010,2,24,10,0,?9?9?9?9E0?9?9?9?9*9?9?9?9?9*9?9*9*9?9*_?9?9*9?9*9,26.0,21.9,78,98090,1100,1395,422,155,1,155,18605,49,17010,62,180,3.0,8,8,777.7,77777,9,999999999,0,0.0000,0,0,999.000,0.0,99.0
2010,2,24,11,0,?9?9?9?9E0?9?9?9?9*9?9?9?9?9*9?9*9*9?9*_?9?9*9?9*9,26.5,21.7,69,98090,1268,1395,424,201,4,198,24128,372,21726,69,180,2.8,8,8,777.7,77777,9,999999999,0,0.0000,0,0,999.000,0.0,99.0
2010,2,24,12,0,?9?9?9?9E0?9?9?9?9*9?9?9?9?9*9?9*9*9?9*_?9?9*9?9*9,26.9,21.5,72,98090,1354,1395,427,227,5,222,27271,497,24440,73,180,2.7,8,8,777.7,77777,9,999999999,0,0.0000,0,0,999.000,0.1,99.0
2010,2,24,13,0,?9?9?9?9E0?9?9?9?9*9?9?9?9?9*9?9*9*9?9*_?9?9*9?9*9,27.2,21.4,70,98090,1355,1395,428,214,5,210,25708,453,23056,69,180,3.2,8,8,777.7,77777,9,999999999,0,0.0000,0,0,999.000,0.4,99.0
2010,2,24,14,0,?9?9?9?9E0?9?9?9?9*9?9?9?9?9*9?9*9*9?9*_?9?9*9?9*9,27.3,21.3,69,98090,1268,1395,429,207,4,203,24811,395,22328,71,180,3.3,8,8,777.7,77777,9,999999999,0,0.0000,0,0,999.000,0.5,99.0
2010,2,24,15,0,?9?9?9?9E0?9?9?9?9*9?9?9?9?9*9?9*9*9?9*_?9?9*9?9*9,27.3,21.3,69,98090,1101,1395,429,172,2,170,20627,188,18736,69,180,3.5,8,8,777.7,77777,9,999999999,0,0.0000,0,0,999.000,0.1,99.0
2010,2,24,16,0,?9?9?9?9E0?9?9?9?9*9?9?9?9?9*9?9*9*9?9*_?9?9*9?9*9,27.2,21.4,75,98090,865,1395,428,131,0,131,15696,0,14388,67,180,3.7,8,8,777.7,77777,9,999999999,1,0.0000,0,0,999.000,1.5,99.0
2010,2,24,17,0,?9?9?9?9E0?9?9?9?9*9?9?9?9?9*9?9*9*9?9*_?9?9*9?9*9,27.0,21.5,71,98090,575,1395,427,98,0,98,11784,0,10802,76,180,4.3,8,8,777.7,77777,9,999999999,0,0.0000,0,0,999.000,1.0,99.0
2010,2,24,18,0,?9?9?9?9E0?9?9?9?9*9?9?9?9?9*9?9*9*9?9*_?9?9*9?9*9,26.6,21.6,83,98090,253,1395,425,45,0,45,5422,0,4970,80,180,4.5,8,8,777.7,77777,9,999999999,5,0.0000,0,0,999.000,5.1,99.0
2010,2,24,19,0,?9?9?9?9E0?9?9?9?9*9?9?9?9?9*9?9*9*9?9*_?9?9*9?9*9,26.4,21.7,80,98090,0,1395,424,2,0,0,239,0,0,0,180,4.0,8,8,777.7,77777,9,999999999,2,0.0000,0,0,999.000,2.2,99.0
2010,2,24,20,0,?9?9?9?9E0?9?9?9?9*9?9?9?9?9*9?9*9*9?9*_?9?9*9?9*9,26.2,21.8,81,98090,0,1395,423,0,0,0,0,0,0,0,180,4.7,8,8,777.7,77777,9,999999999,2,0.0000,0,0,999.000,2.8,99.0
2010,2,24,21,0,?9?9?9?9E0?9?9?9?9*9?9?9?9?9*9?9*9*9?9*_?9?9*9?9*9,26.0,21.9,78,98090,0,1395,422,0,0,0,0,0,0,0,180,4.6,8,8,777.7,77777,9,999999999,0,0.0000,0,0,999.000,0.3,99.0
2010,2,24,22,0,?9?9?9?9E0?9?9?9?9*9?9?9?9?9*9?9*9*9?9*_?9?9*9?9*9,25.8,22.0,84,98090,0,1395,421,0,0,0,0,0,0,0,180,4.4,8,8,777.7,77777,9,999999999,1,0.0000,0,0,999.000,1.2,99.0
2010,2,24,23,0,?9?9?9?9E0?9?9?9?9*9?9?9?9?9*9?9*9*9?9*_?9?9*9?9*9,25.5,22.1,90,98090,0,1395,420,0,0,0,0,0,0,0,180,4.1,8,8,777.7,77777,9,999999999,8,0.0000,0,0,999.000,8.3,99.0
2010,2,24,24,0,?9?9?9?9E0?9?9?9?9*9?9?9?9?9*9?9*9*9?9*_?9?9*9?9*9,25.3,23.2,87,98090,0,1395,420,0,0,0,0,0,0,0,180,8.6,8,8,777.7,77777,9,999999999,0,0.0000,0,0,999.000,0.5,99.0
2010,2,25,1,0,?9?9?9?9E0?9?9?9?9*9?9?9?9?9*9?9*9*9?9*_?9?9*9?9*9,25.2,23.2,88,98090,0,1395,419,0,0,0,0,0,0,0,180,6.8,8,8,777.7,77777,9,999999999,0,0.0000,0,0,999.000,0.6,99.0
2010,2,25,2,0,?9?9?9?9E0?9?9?9?9*9?9?9?9?9*9?9*9*9?9*_?9?9*9?9*9,25.1,23.2,88,98090,0,1395,419,0,0,0,0,0,0,0,180,5.5,8,8,777.7,77777,9,999999999,0,0.0000,0,0,999.000,0.8,99.0
2010,2,25,3,0,?9?9?9?9E0?9?9?9?9*9?9?9?9?9*9?9*9*9?9*_?9?9*9?9*9,25.0,23.2,89,98090,0,1395,418,0,0,0,0,0,0,0,180,4.7,8,8,777.7,77777,9,999999999,0,0.0000,0,0,999.000,0.3,99.0
2010,2,25,4,0,?9?9?9?9E0?9?9?9?9*9?9?9?9?9*9?9*9*9?9*_?9?9*9?9*9,24.9,23.2,89,98090,0,1395,417,0,0,0,0,0,0,0,180,4.6,8,8,777.7,77777,9,999999999,0,0.0000,0,0,999.000,0.1,99.0
2010,2,25,5,0,?9?9?9?9E0?9?9?9?9*9?9?9?9?9*9?9*9*9?9*_?9?9*9?9*9,24.8,23.2,85,98090,0,1395,417,0,0,0,0,0,0,0,180,4.6,8,8,777.7,77777,9,999999999,0,0.0000,0,0,999.000,0.0,99.0
2010,2,25,6,0,?9?9?9?9E0?9?9?9?9*9?9?9?9?9*9?9*9*9?9*_?9?9*9?9*9,24.7,23.2,90,98090,0,1395,416,0,0,0,0,0,0,0,180,4.6,8,8,777.7,77777,9,999999999,0,0.0000,0,0,999.000,0.0,99.0
2010,2,25,7,0,?9?9?9?9E0?9?9?9?9*9?9?9?9?9*9?9*9*9?9*_?9?9*9?9*9,24.6,23.2,91,98090,250,1395,416,2,0,2,242,0,222,4,180,4.6,8,8,777.7,77777,9,999999999,0,0.0000,0,0,999.000,0.0,99.0
2010,2,25,8,0,?9?9?9?9E0?9?9?9?9*9?9?9?9?9*9?9*9*9?9*_?9?9*9?9*9,24.5,23.2,91,98090,572,1395,415,50,0,50,5940,0,5445,38,180,4.6,8,8,777.7,77777,9,999999999,0,0.0000,0,0,999.000,0.0,99.0
2010,2,25,9,0,?9?9?9?9E0?9?9?9?9*9?9?9?9?9*9?9*9*9?9*_?9?9*9?9*9,26.0,23.3,84,98090,861,1395,424,108,0,108,12988,0,11905,56,180,4.6,8,8,777.7,77777,9,999999999,0,0.0000,0,0,999.000,0.1,99.0
2010,2,25,10,0,?9?9?9?9E0?9?9?9?9*9?9?9?9?9*9?9*9*9?9*_?9?9*9?9*9,26.4,23.3,82,98090,1098,1395,426,139,0,139,16688,0,15298,56,180,4.6,8,8,777.7,77777,9,999999999,0,0.0000,0,0,999.000,0.0,99.0
2010,2,25,11,0,?9?9?9?9E0?9?9?9?9*9?9?9?9?9*9?9*9*9?9*_?9?9*9?9*9,26.8,23.3,81,98090,1265,1395,428,168,2,166,20143,211,18242,58,180,4.6,8,8,777.7,77777,9,999999999,0,0.0000,0,0,999.000,0.1,99.0
2010,2,25,12,0,?9?9?9?9E0?9?9?9?9*9?9?9?9?9*9?9*9*9?9*_?9?9*9?9*9,27.1,23.4,80,98090,1352,1395,430,196,3,194,23545,260,21291,64,180,4.6,8,8,777.7,77777,9,999999999,0,0.0000,0,0,999.000,0.1,99.0
2010,2,25,13,0,?9?9?9?9E0?9?9?9?9*9?9?9?9?9*9?9*9*9?9*_?9?9*9?9*9,27.4,23.4,78,98090,1352,1395,432,241,4,237,28920,367,26098,78,180,4.6,8,8,777.7,77777,9,999999999,0,0.0000,0,0,999.000,0.2,99.0
2010,2,25,14,0,?9?9?9?9E0?9?9?9?9*9?9?9?9?9*9?9*9*9?9*_?9?9*9?9*9,27.6,23.4,77,98090,1265,1395,433,212,3,209,25416,282,23001,73,180,4.6,8,8,777.7,77777,9,999999999,0,0.0000,0,0,999.000,0.2,99.0
2010,2,25,15,0,?9?9?9?9E0?9?9?9?9*9?9?9?9?9*9?9*9*9?9*_?9?9*9?9*9,27.7,23.4,77,98090,1098,1395,434,217,3,215,26093,245,23696,87,180,4.6,8,8,777.7,77777,9,999999999,0,0.0000,0,0,999.000,0.3,99.0
2010,2,25,16,0,?9?9?9?9E0?9?9?9?9*9?9?9?9?9*9?9*9*9?9*_?9?9*9?9*9,27.7,23.4,82,98090,861,1395,434,163,0,163,19601,14,17958,84,180,4.6,8,8,777.7,77777,9,999999999,1,0.0000,0,0,999.000,1.2,99.0
2010,2,25,17,0,?9?9?9?9E0?9?9?9?9*9?9?9?9?9*9?9*9*9?9*_?9?9*9?9*9,27.5,23.4,83,98090,572,1395,432,108,0,108,12984,0,11902,84,180,4.6,8,8,777.7,77777,9,999999999,2,0.0000,0,0,999.000,2.7,99.0
2010,2,25,18,0,?9?9?9?9E0?9?9?9?9*9?9?9?9?9*9?9*9*9?9*_?9?9*9?9*9,27.2,23.4,84,98090,249,1395,431,49,0,49,5932,0,5437,89,180,4.6,8,8,777.7,77777,9,999999999,1,0.0000,0,0,999.000,1.9,99.0
2010,2,25,19,0,?9?9?9?9E0?9?9?9?9*9?9?9?9?9*9?9*9*9?9*_?9?9*9?9*9,26.8,23.3,85,98090,0,1395,429,2,0,0,236,0,0,0,180,4.6,8,8,777.7,77777,9,999999999,4,0.0000,0,0,999.000,4.3,99.0
2010,2,25,20,0,?9?9?9?9E0?9?9?9?9*9?9?9?9?9*9?9*9*9?9*_?9?9*9?9*9,26.5,23.3,92,98090,0,1395,427,0,0,0,0,0,0,0,180,4.6,8,8,777.7,77777,9,999999999,45,0.0000,0,0,999.000,45.7,99.0
2010,2,25,21,0,?9?9?9?9E0?9?9?9?9*9?9?9?9?9*9?9*9*9?9*_?9?9*9?9*9,26.2,23.3,88,98090,0,1395,425,0,0,0,0,0,0,0,180,4.7,8,8,777.7,77777,9,999999999,1,0.0000,0,0,999.000,1.5,99.0
2010,2,25,22,0,?9?9?9?9E0?9?9?9?9*9?9?9?9?9*9?9*9*9?9*_?9?9*9?9*9,25.8,23.3,85,98090,0,1395,423,0,0,0,0,0,0,0,180,4.6,8,8,777.7,77777,9,999999999,0,0.0000,0,0,999.000,0.9,99.0
2010,2,25,23,0,?9?9?9?9E0?9?9?9?9*9?9?9?9?9*9?9*9*9?9*_?9?9*9?9*9,25.5,23.2,87,98090,0,1395,421,0,0,0,0,0,0,0,180,4.6,8,8,777.7,77777,9,999999999,0,0.0000,0,0,999.000,0.4,99.0
2010,2,25,24,0,?9?9?9?9E0?9?9?9?9*9?9?9?9?9*9?9*9*9?9*_?9?9*9?9*9,25.1,22.6,83,98090,0,1395,418,0,0,0,0,0,0,0,180,1.3,8,8,777.7,77777,9,999999999,0,0.0000,0,0,999.000,0.4,99.0
2010,2,26,1,0,?9?9?9?9E0?9?9?9?9*9?9?9?9?9*9?9*9*9?9*_?9?9*9?9*9,25.0,22.6,83,98090,0,1395,417,0,0,0,0,0,0,0,180,1.3,8,8,777.7,77777,9,999999999,0,0.0000,0,0,999.000,0.8,99.0
2010,2,26,2,0,?9?9?9?9E0?9?9?9?9*9?9?9?9?9*9?9*9*9?9*_?9?9*9?9*9,24.8,22.6,84,98090,0,1395,416,0,0,0,0,0,0,0,180,1.3,8,8,777.7,77777,9,999999999,0,0.0000,0,0,999.000,0.3,99.0
2010,2,26,3,0,?9?9?9?9E0?9?9?9?9*9?9?9?9?9*9?9*9*9?9*_?9?9*9?9*9,24.6,22.6,92,98090,0,1395,415,0,0,0,0,0,0,0,180,1.3,8,8,777.7,77777,9,999999999,10,0.0000,0,0,999.000,10.8,99.0
2010,2,26,4,0,?9?9?9?9E0?9?9?9?9*9?9?9?9?9*9?9*9*9?9*_?9?9*9?9*9,24.5,22.6,85,98090,0,1394,414,0,0,0,0,0,0,0,180,1.3,8,8,777.7,77777,9,999999999,0,0.0000,0,0,999.000,0.2,99.0
2010,2,26,5,0,?9?9?9?9E0?9?9?9?9*9?9?9?9?9*9?9*9*9?9*_?9?9*9?9*9,24.3,22.6,86,98090,0,1394,413,0,0,0,0,0,0,0,180,1.3,8,8,777.7,77777,9,999999999,0,0.0000,0,0,999.000,0.2,99.0
2010,2,26,6,0,?9?9?9?9E0?9?9?9?9*9?9?9?9?9*9?9*9*9?9*_?9?9*9?9*9,24.2,22.6,86,98090,0,1394,413,0,0,0,0,0,0,0,180,1.3,8,8,777.7,77777,9,999999999,0,0.0000,0,0,999.000,0.1,99.0
2010,2,26,7,0,?9?9?9?9E0?9?9?9?9*9?9?9?9?9*9?9*9*9?9*_?9?9*9?9*9,24.1,22.6,87,98090,247,1394,412,7,0,7,875,0,802,13,180,1.3,8,8,777.7,77777,9,999999999,0,0.0000,0,0,999.000,0.0,99.0
2010,2,26,8,0,?9?9?9?9E0?9?9?9?9*9?9?9?9?9*9?9*9*9?9*_?9?9*9?9*9,24.0,22.6,87,98090,570,1394,411,158,19,150,18911,1816,16477,117,180,1.3,8,8,777.7,77777,9,999999999,0,0.0000,0,0,999.000,0.1,99.0
2010,2,26,9,0,?9?9?9?9E0?9?9?9?9*9?9?9?9?9*9?9*9*9?9*_?9?9*9?9*9,26.3,22.6,79,98090,859,1394,413,354,105,289,42485,9981,31826,150,180,1.5,6,6,777.7,77777,9,999999999,0,0.0000,0,0,999.000,0.0,99.0
2010,2,26,10,0,?9?9?9?9E0?9?9?9?9*9?9?9?9?9*9?9*9*9?9*_?9?9*9?9*9,27.2,22.6,72,98090,1096,1394,414,542,205,381,64987,19451,41873,154,180,2.4,5,5,777.7,77777,9,999999999,0,0.0000,0,0,999.000,0.0,99.0
2010,2,26,11,0,?9?9?9?9E0?9?9?9?9*9?9?9?9?9*9?9*9*9?9*_?9?9*9?9*9,28.0,22.6,70,98090,1263,1394,416,708,281,454,85002,26679,49935,160,180,3.6,4,4,777.7,77777,9,999999999,0,0.0000,0,0,999.000,0.0,99.0
2010,2,26,12,0,?9?9?9?9E0?9?9?9?9*9?9?9?9?9*9?9*9*9?9*_?9?9*9?9*9,28.7,22.6,68,98090,1349,1394,420,809,373,448,97031,35413,49255,147,180,4.8,4,4,777.7,77777,9,999999999,0,0.0000,0,0,999.000,0.0,99.0
2010,2,26,13,0,?9?9?9?9E0?9?9?9?9*9?9?9?9?9*9?9*9*9?9*_?9?9*9?9*9,29.3,22.6,66,98090,1349,1394,415,902,537,382,108180,50983,42033,126,180,5.3,2,2,777.7,77777,9,999999999,0,0.0000,0,0,999.000,0.0,99.0
2010,2,26,14,0,?9?9?9?9E0?9?9?9?9*9?9?9?9?9*9?9*9*9?9*_?9?9*9?9*9,29.7,22.6,65,98090,1262,1394,418,893,612,339,107154,58154,37257,119,180,5.7,2,2,777.7,77777,9,999999999,0,0.0000,0,0,999.000,0.0,99.0
2010,2,26,15,0,?9?9?9?9E0?9?9?9?9*9?9?9?9?9*9?9*9*9?9*_?9?9*9?9*9,29.8,22.6,65,98090,1095,1394,426,732,600,261,87857,57043,28682,106,180,5.7,4,4,777.7,77777,9,999999999,0,0.0000,0,0,999.000,0.0,99.0
2010,2,26,16,0,?9?9?9?9E0?9?9?9?9*9?9?9?9?9*9?9*9*9?9*_?9?9*9?9*9,29.8,22.6,65,98090,858,1394,422,630,852,106,75586,80983,11626,55,180,5.0,3,3,777.7,77777,9,999999999,0,0.0000,0,0,999.000,0.0,99.0
2010,2,26,17,0,?9?9?9?9E0?9?9?9?9*9?9?9?9?9*9?9*9*9?9*_?9?9*9?9*9,29.5,22.6,66,98090,568,1394,424,423,749,119,50788,71145,13062,93,180,4.6,4,4,777.7,77777,9,999999999,0,0.0000,0,0,999.000,0.0,99.0
2010,2,26,18,0,?9?9?9?9E0?9?9?9?9*9?9?9?9?9*9?9*9*9?9*_?9?9*9?9*9,28.9,22.6,67,98090,245,1394,428,199,396,130,23905,37595,14329,238,180,3.8,6,6,777.7,77777,9,999999999,0,0.0000,0,0,999.000,0.0,99.0
2010,2,26,19,0,?9?9?9?9E0?9?9?9?9*9?9?9?9?9*9?9*9*9?9*_?9?9*9?9*9,28.2,22.6,73,98090,0,1394,424,7,0,0,832,0,0,0,180,2.7,6,6,777.7,77777,9,999999999,0,0.0000,0,0,999.000,0.0,99.0
2010,2,26,20,0,?9?9?9?9E0?9?9?9?9*9?9?9?9?9*9?9*9*9?9*_?9?9*9?9*9,27.6,22.6,71,98090,0,1394,420,0,0,0,0,0,0,0,180,1.8,6,6,777.7,77777,9,999999999,0,0.0000,0,0,999.000,0.0,99.0
2010,2,26,21,0,?9?9?9?9E0?9?9?9?9*9?9?9?9?9*9?9*9*9?9*_?9?9*9?9*9,26.9,22.6,73,98090,0,1394,416,0,0,0,0,0,0,0,180,1.3,6,6,777.7,77777,9,999999999,0,0.0000,0,0,999.000,0.0,99.0
2010,2,26,22,0,?9?9?9?9E0?9?9?9?9*9?9?9?9?9*9?9*9*9?9*_?9?9*9?9*9,26.2,22.6,79,98090,0,1394,418,0,0,0,0,0,0,0,180,1.3,7,7,777.7,77777,9,999999999,0,0.0000,0,0,999.000,0.0,99.0
2010,2,26,23,0,?9?9?9?9E0?9?9?9?9*9?9?9?9?9*9?9*9*9?9*_?9?9*9?9*9,25.6,22.6,81,98090,0,1394,414,0,0,0,0,0,0,0,180,1.3,7,7,777.7,77777,9,999999999,0,0.0000,0,0,999.000,0.1,99.0
2010,2,26,24,0,?9?9?9?9E0?9?9?9?9*9?9?9?9?9*9?9*9*9?9*_?9?9*9?9*9,24.9,21.4,80,98090,0,1394,409,0,0,0,0,0,0,0,180,2.0,7,7,777.7,77777,9,999999999,0,0.0000,0,0,999.000,0.0,99.0
2010,2,27,1,0,?9?9?9?9E0?9?9?9?9*9?9?9?9?9*9?9*9*9?9*_?9?9*9?9*9,24.6,21.3,87,98090,0,1394,407,0,0,0,0,0,0,0,180,2.0,7,7,777.7,77777,9,999999999,0,0.0000,0,0,999.000,0.0,99.0
2010,2,27,2,0,?9?9?9?9E0?9?9?9?9*9?9?9?9?9*9?9*9*9?9*_?9?9*9?9*9,24.3,21.3,88,98090,0,1394,405,0,0,0,0,0,0,0,180,2.0,7,7,777.7,77777,9,999999999,0,0.0000,0,0,999.000,0.0,99.0
2010,2,27,3,0,?9?9?9?9E0?9?9?9?9*9?9?9?9?9*9?9*9*9?9*_?9?9*9?9*9,23.9,21.2,84,98090,0,1394,403,0,0,0,0,0,0,0,180,2.0,7,7,777.7,77777,9,999999999,0,0.0000,0,0,999.000,0.0,99.0
2010,2,27,4,0,?9?9?9?9E0?9?9?9?9*9?9?9?9?9*9?9*9*9?9*_?9?9*9?9*9,23.6,21.2,86,98090,0,1393,401,0,0,0,0,0,0,0,180,2.0,7,7,777.7,77777,9,999999999,0,0.0000,0,0,999.000,0.0,99.0
2010,2,27,5,0,?9?9?9?9E0?9?9?9?9*9?9?9?9?9*9?9*9*9?9*_?9?9*9?9*9,23.3,21.2,87,98090,0,1393,406,0,0,0,0,0,0,0,180,2.0,8,8,777.7,77777,9,999999999,0,0.0000,0,0,999.000,0.0,99.0
2010,2,27,6,0,?9?9?9?9E0?9?9?9?9*9?9?9?9?9*9?9*9*9?9*_?9?9*9?9*9,23.0,21.1,89,98090,0,1393,404,0,0,0,0,0,0,0,180,2.0,8,8,777.7,77777,9,999999999,0,0.0000,0,0,999.000,0.0,99.0
2010,2,27,7,0,?9?9?9?9E0?9?9?9?9*9?9?9?9?9*9?9*9*9?9*_?9?9*9?9*9,22.8,21.1,90,98090,245,1393,403,6,0,6,721,0,661,11,180,2.0,8,8,777.7,77777,9,999999999,0,0.0000,0,0,999.000,0.0,99.0
2010,2,27,8,0,?9?9?9?9E0?9?9?9?9*9?9?9?9?9*9?9*9*9?9*_?9?9*9?9*9,22.6,21.1,91,98090,567,1393,402,102,0,102,12218,0,11200,80,180,2.0,8,8,777.7,77777,9,999999999,0,0.0000,0,0,999.000,0.0,99.0
2010,2,27,9,0,?9?9?9?9E0?9?9?9?9*9?9?9?9?9*9?9*9*9?9*_?9?9*9?9*9,24.7,21.3,81,98090,857,1393,407,320,56,285,38386,5321,31400,148,180,2.0,7,7,777.7,77777,9,999999999,0,0.0000,0,0,999.000,0.0,99.0
2010,2,27,10,0,?9?9?9?9E0?9?9?9?9*9?9?9?9?9*9?9*9*9?9*_?9?9*9?9*9,25.6,21.4,77,98090,1093,1393,408,510,164,381,61171,15608,41894,155,180,2.0,6,6,777.7,77777,9,999999999,0,0.0000,0,0,999.000,0.0,99.0
2010,2,27,11,0,?9?9?9?9E0?9?9?9?9*9?9?9?9?9*9?9*9*9?9*_?9?9*9?9*9,26.8,21.6,73,98090,1261,1393,405,776,395,418,93094,37562,45991,147,180,2.5,3,3,777.7,77777,9,999999999,0,0.0000,0,0,999.000,0.0,99.0
2010,2,27,12,0,?9?9?9?9E0?9?9?9?9*9?9?9?9?9*9?9*9*9?9*_?9?9*9?9*9,28.0,21.7,68,98090,1347,1393,395,1070,912,188,128420,86659,20731,62,180,3.7,0,0,777.7,77777,9,999999999,0,0.0000,0,0,999.000,0.0,99.0
2010,2,27,13,0,?9?9?9?9E0?9?9?9?9*9?9?9?9?9*9?9*9*9?9*_?9?9*9?9*9,28.8,21.8,66,98090,1346,1393,398,984,656,350,118109,62334,38527,115,180,4.4,0,0,777.7,77777,9,999999999,0,0.0000,0,0,999.000,0.0,99.0
2010,2,27,14,0,?9?9?9?9E0?9?9?9?9*9?9?9?9?9*9?9*9*9?9*_?9?9*9?9*9,29.0,21.8,65,98090,1259,1393,420,808,475,380,97006,45079,41755,134,180,5.1,4,4,777.7,77777,9,999999999,0,0.0000,0,0,999.000,0.0,99.0
2010,2,27,15,0,?9?9?9?9E0?9?9?9?9*9?9?9?9?9*9?9*9*9?9*_?9?9*9?9*9,28.8,21.8,66,98090,1091,1393,431,532,196,378,63810,18647,41587,154,180,4.9,7,7,777.7,77777,9,999999999,0,0.0000,0,0,999.000,0.0,99.0
2010,2,27,16,0,?9?9?9?9E0?9?9?9?9*9?9?9?9?9*9?9*9*9?9*_?9?9*9?9*9,28.2,21.7,73,98090,854,1393,434,326,76,279,39096,7258,30690,145,180,4.7,8,8,777.7,77777,9,999999999,0,0.0000,0,0,999.000,0.2,99.0
2010,2,27,17,0,?9?9?9?9E0?9?9?9?9*9?9?9?9?9*9?9*9*9?9*_?9?9*9?9*9,27.5,21.6,80,98090,564,1393,430,230,151,169,27612,14381,18585,133,180,3.4,8,8,777.7,77777,9,999999999,2,0.0000,0,0,999.000,2.6,99.0
2010,2,27,18,0,?9?9?9?9E0?9?9?9?9*9?9?9?9?9*9?9*9*9?9*_?9?9*9?9*9,26.9,21.6,77,98090,241,1393,427,138,240,97,16585,22837,10674,180,180,2.0,8,8,777.7,77777,9,999999999,0,0.0000,0,0,999.000,0.0,99.0
2010,2,27,19,0,?9?9?9?9E0?9?9?9?9*9?9?9?9?9*9?9*9*9?9*_?9?9*9?9*9,26.4,21.5,79,98090,0,1393,424,5,0,0,624,0,0,0,180,2.0,8,8,777.7,77777,9,999999999,0,0.0000,0,0,999.000,0.0,99.0
2010,2,27,20,0,?9?9?9?9E0?9?9?9?9*9?9?9?9?9*9?9*9*9?9*_?9?9*9?9*9,25.8,21.5,76,98090,0,1393,420,0,0,0,0,0,0,0,180,2.0,8,8,777.7,77777,9,999999999,0,0.0000,0,0,999.000,0.0,99.0
2010,2,27,21,0,?9?9?9?9E0?9?9?9?9*9?9?9?9?9*9?9*9*9?9*_?9?9*9?9*9,25.3,21.4,84,98090,0,1393,417,0,0,0,0,0,0,0,180,2.0,8,8,777.7,77777,9,999999999,0,0.0000,0,0,999.000,0.0,99.0
2010,2,27,22,0,?9?9?9?9E0?9?9?9?9*9?9?9?9?9*9?9*9*9?9*_?9?9*9?9*9,24.7,21.3,86,98090,0,1393,414,0,0,0,0,0,0,0,180,2.0,8,8,777.7,77777,9,999999999,0,0.0000,0,0,999.000,0.1,99.0
2010,2,27,23,0,?9?9?9?9E0?9?9?9?9*9?9?9?9?9*9?9*9*9?9*_?9?9*9?9*9,24.2,21.3,88,98090,0,1393,411,0,0,0,0,0,0,0,180,2.0,8,8,777.7,77777,9,999999999,0,0.0000,0,0,999.000,0.1,99.0
2010,2,27,24,0,?9?9?9?9E0?9?9?9?9*9?9?9?9?9*9?9*9*9?9*_?9?9*9?9*9,23.7,20.2,79,98090,0,1393,407,0,0,0,0,0,0,0,180,2.6,8,8,777.7,77777,9,999999999,0,0.0000,0,0,999.000,0.1,99.0
2010,2,28,1,0,?9?9?9?9E0?9?9?9?9*9?9?9?9?9*9?9*9*9?9*_?9?9*9?9*9,23.4,20.3,80,98090,0,1393,405,0,0,0,0,0,0,0,180,2.6,8,8,777.7,77777,9,999999999,0,0.0000,0,0,999.000,0.4,99.0
2010,2,28,2,0,?9?9?9?9E0?9?9?9?9*9?9?9?9?9*9?9*9*9?9*_?9?9*9?9*9,23.1,20.4,82,98090,0,1393,404,0,0,0,0,0,0,0,180,2.6,8,8,777.7,77777,9,999999999,0,0.0000,0,0,999.000,0.0,99.0
2010,2,28,3,0,?9?9?9?9E0?9?9?9?9*9?9?9?9?9*9?9*9*9?9*_?9?9*9?9*9,22.9,20.5,83,98090,0,1393,403,0,0,0,0,0,0,0,180,2.6,8,8,777.7,77777,9,999999999,0,0.0000,0,0,999.000,0.0,99.0
2010,2,28,4,0,?9?9?9?9E0?9?9?9?9*9?9?9?9?9*9?9*9*9?9*_?9?9*9?9*9,22.6,20.6,85,98090,0,1393,401,0,0,0,0,0,0,0,180,2.6,8,8,777.7,77777,9,999999999,0,0.0000,0,0,999.000,0.2,99.0
2010,2,28,5,0,?9?9?9?9E0?9?9?9?9*9?9?9?9?9*9?9*9*9?9*_?9?9*9?9*9,22.3,20.7,94,98090,0,1393,400,0,0,0,0,0,0,0,180,2.6,8,8,777.7,77777,9,999999999,5,0.0000,0,0,999.000,6.0,99.0
2010,2,28,6,0,?9?9?9?9E0?9?9?9?9*9?9?9?9?9*9?9*9*9?9*_?9?9*9?9*9,22.1,20.8,88,98090,0,1393,399,0,0,0,0,0,0,0,180,2.6,8,8,777.7,77777,9,999999999,0,0.0000,0,0,999.000,0.1,99.0
2010,2,28,7,0,?9?9?9?9E0?9?9?9?9*9?9?9?9?9*9?9*9*9?9*_?9?9*9?9*9,21.9,20.8,89,98090,243,1393,398,6,0,6,728,0,668,11,180,2.6,8,8,777.7,77777,9,999999999,0,0.0000,0,0,999.000,0.0,99.0
2010,2,28,8,0,?9?9?9?9E0?9?9?9?9*9?9?9?9?9*9?9*9*9?9*_?9?9*9?9*9,21.8,20.9,86,98090,565,1393,397,155,18,148,18587,1663,16257,116,180,2.6,8,8,777.7,77777,9,999999999,0,0.0000,0,0,999.000,0.0,99.0
2010,2,28,9,0,?9?9?9?9E0?9?9?9?9*9?9?9?9?9*9?9*9*9?9*_?9?9*9?9*9,24.7,19.8,70,98090,855,1393,401,362,118,290,43434,11182,31871,150,180,2.6,6,6,777.7,77777,9,999999999,0,0.0000,0,0,999.000,0.0,99.0
2010,2,28,10,0,?9?9?9?9E0?9?9?9?9*9?9?9?9?9*9?9*9*9?9*_?9?9*9?9*9,25.9,19.3,64,98090,1091,1393,400,592,294,362,70996,27901,39772,147,180,2.6,4,4,777.7,77777,9,999999999,0,0.0000,0,0,999.000,0.0,99.0
2010,2,28,11,0,?9?9?9?9E0?9?9?9?9*9?9?9?9?9*9?9*9*9?9*_?9?9*9?9*9,26.9,19.0,59,98090,1258,1393,405,722,318,435,86686,30230,47843,153,180,2.6,4,4,777.7,77777,9,999999999,0,0.0000,0,0,999.000,0.0,99.0
2010,2,28,12,0,?9?9?9?9E0?9?9?9?9*9?9?9?9?9*9?9*9*9?9*_?9?9*9?9*9,27.7,18.6,56,98090,1344,1393,409,788,351,449,94519,33328,49396,148,180,2.6,4,4,777.7,77777,9,999999999,0,0.0000,0,0,999.000,0.0,99.0
2010,2,28,13,0,?9?9?9?9E0?9?9?9?9*9?9?9?9?9*9?9*9*9?9*_?9?9*9?9*9,28.2,18.4,54,98090,1344,1393,414,794,366,441,95288,34733,48552,146,180,2.6,5,5,777.7,77777,9,999999999,0,0.0000,0,0,999.000,0.0,99.0
2010,2,28,14,0,?9?9?9?9E0?9?9?9?9*9?9?9?9?9*9?9*9*9?9*_?9?9*9?9*9,28.6,18.3,53,98090,1256,1393,413,811,482,376,97366,45815,41414,133,180,2.6,4,4,777.7,77777,9,999999999,0,0.0000,0,0,999.000,0.0,99.0
2010,2,28,15,0,?9?9?9?9E0?9?9?9?9*9?9?9?9?9*9?9*9*9?9*_?9?9*9?9*9,28.9,18.1,52,98090,1088,1393,394,823,826,178,98772,78433,19626,73,180,2.6,0,0,777.7,77777,9,999999999,0,0.0000,0,0,999.000,0.0,99.0
2010,2,28,16,0,?9?9?9?9E0?9?9?9?9*9?9?9?9?9*9?9*9*9?9*_?9?9*9?9*9,28.9,18.1,52,98090,850,1393,402,651,793,167,78114,75300,18409,87,180,2.6,1,1,777.7,77777,9,999999999,0,0.0000,0,0,999.000,0.0,99.0
2010,2,28,17,0,?9?9?9?9E0?9?9?9?9*9?9?9?9?9*9?9*9*9?9*_?9?9*9?9*9,28.5,18.3,53,98090,560,1393,413,419,747,120,50322,71005,13145,95,180,2.6,4,4,777.7,77777,9,999999999,0,0.0000,0,0,999.000,0.0,99.0
2010,2,28,18,0,?9?9?9?9E0?9?9?9?9*9?9?9?9?9*9?9*9*9?9*_?9?9*9?9*9,27.8,18.6,57,98090,237,1393,413,250,255,207,29995,24264,22767,391,180,2.6,5,5,777.7,77777,9,999999999,0,0.0000,0,0,999.000,0.0,99.0
2010,2,28,19,0,?9?9?9?9E0?9?9?9?9*9?9?9?9?9*9?9*9*9?9*_?9?9*9?9*9,27.3,18.8,59,98090,0,1393,414,120,0,0,14372,0,0,0,180,2.6,6,6,777.7,77777,9,999999999,0,0.0000,0,0,999.000,0.0,99.0
2010,2,28,20,0,?9?9?9?9E0?9?9?9?9*9?9?9?9?9*9?9*9*9?9*_?9?9*9?9*9,26.7,19.0,62,98090,0,1393,416,36,0,0,4308,0,0,0,180,2.6,7,7,777.7,77777,9,999999999,0,0.0000,0,0,999.000,0.0,99.0
2010,2,28,21,0,?9?9?9?9E0?9?9?9?9*9?9?9?9?9*9?9*9*9?9*_?9?9*9?9*9,26.2,19.2,65,98090,0,1393,408,1,0,0,117,0,0,0,180,2.6,6,6,777.7,77777,9,999999999,0,0.0000,0,0,999.000,0.0,99.0
2010,2,28,22,0,?9?9?9?9E0?9?9?9?9*9?9?9?9?9*9?9*9*9?9*_?9?9*9?9*9,25.8,19.8,68,98090,0,1393,412,0,0,0,0,0,0,0,180,2.3,7,7,777.7,77777,9,999999999,0,0.0000,0,0,999.000,0.1,99.0
2010,2,28,23,0,?9?9?9?9E0?9?9?9?9*9?9?9?9?9*9?9*9*9?9*_?9?9*9?9*9,25.4,20.4,72,98090,0,1393,410,0,0,0,0,0,0,0,180,2.1,7,7,777.7,77777,9,999999999,0,0.0000,0,0,999.000,0.2,99.0
2010,2,28,24,0,?9?9?9?9E0?9?9?9?9*9?9?9?9?9*9?9*9*9?9*_?9?9*9?9*9,25.0,20.9,77,98090,0,1393,409,0,0,0,0,0,0,0,180,1.8,7,7,777.7,77777,9,999999999,0,0.0000,0,0,999.000,0.5,99.0
2014,3,1,1,0,?9?9?9?9E0?9?9?9?9*9?9?9?9?9*9?9*9*9?9*_?9?9*9?9*9,24.7,21.4,81,98090,0,1393,414,0,0,0,0,0,0,0,180,1.5,8,8,777.7,77777,9,999999999,0,0.0000,0,0,999.000,0.7,99.0
2014,3,1,2,0,?9?9?9?9E0?9?9?9?9*9?9?9?9?9*9?9*9*9?9*_?9?9*9?9*9,24.4,21.8,85,98090,0,1393,413,0,0,0,0,0,0,0,180,1.2,8,8,777.7,77777,9,999999999,4,0.0000,0,0,999.000,4.9,99.0
2014,3,1,3,0,?9?9?9?9E0?9?9?9?9*9?9?9?9?9*9?9*9*9?9*_?9?9*9?9*9,24.1,21.8,85,98090,0,1393,411,0,0,0,0,0,0,0,180,1.2,8,8,777.7,77777,9,999999999,4,0.0000,0,0,999.000,4.9,99.0
2014,3,1,4,0,?9?9?9?9E0?9?9?9?9*9?9?9?9?9*9?9*9*9?9*_?9?9*9?9*9,23.9,21.7,86,98090,0,1392,410,0,0,0,0,0,0,0,180,1.2,8,8,777.7,77777,9,999999999,4,0.0000,0,0,999.000,4.8,99.0
2014,3,1,5,0,?9?9?9?9E0?9?9?9?9*9?9?9?9?9*9?9*9*9?9*_?9?9*9?9*9,23.7,21.7,86,98090,0,1392,409,1,0,0,90,0,0,0,180,1.2,8,8,777.7,77777,9,999999999,4,0.0000,0,0,999.000,4.5,99.0
2014,3,1,6,0,?9?9?9?9E0?9?9?9?9*9?9?9?9?9*9?9*9*9?9*_?9?9*9?9*9,23.4,21.6,85,98090,0,1392,407,0,0,0,0,0,0,0,180,1.2,8,8,777.7,77777,9,999999999,0,0.0000,0,0,999.000,0.5,99.0
2014,3,1,7,0,?9?9?9?9E0?9?9?9?9*9?9?9?9?9*9?9*9*9?9*_?9?9*9?9*9,23.2,21.6,86,98090,241,1392,406,4,0,4,452,0,415,7,180,1.2,8,8,777.7,77777,9,999999999,0,0.0000,0,0,999.000,0.0,99.0
2014,3,1,8,0,?9?9?9?9E0?9?9?9?9*9?9?9?9?9*9?9*9*9?9*_?9?9*9?9*9,23.1,21.5,86,98090,563,1392,405,117,0,117,14057,0,12885,92,180,1.2,8,8,777.7,77777,9,999999999,0,0.0000,0,0,999.000,0.1,99.0
2014,3,1,9,0,?9?9?9?9E0?9?9?9?9*9?9?9?9?9*9?9*9*9?9*_?9?9*9?9*9,25.8,22.1,76,98090,853,1392,421,260,24,245,31171,2327,26924,127,180,1.2,8,8,777.7,77777,9,999999999,0,0.0000,0,0,999.000,0.0,99.0
2014,3,1,10,0,?9?9?9?9E0?9?9?9?9*9?9?9?9?9*9?9*9*9?9*_?9?9*9?9*9,26.8,22.3,73,98090,1089,1392,427,387,39,356,46435,3722,39195,145,180,1.2,8,8,777.7,77777,9,999999999,0,0.0000,0,0,999.000,0.0,99.0
2014,3,1,11,0,?9?9?9?9E0?9?9?9?9*9?9?9?9?9*9?9*9*9?9*_?9?9*9?9*9,27.6,22.5,71,98090,1256,1392,432,486,49,441,58267,4651,48554,156,180,1.9,8,8,777.7,77777,9,999999999,0,0.0000,0,0,999.000,0.0,99.0
2014,3,1,12,0,?9?9?9?9E0?9?9?9?9*9?9?9?9?9*9?9*9*9?9*_?9?9*9?9*9,28.3,22.6,70,98090,1341,1392,436,548,46,503,65714,4412,55316,166,180,2.5,8,8,777.7,77777,9,999999999,0,0.0000,0,0,999.000,0.0,99.0
2014,3,1,13,0,?9?9?9?9E0?9?9?9?9*9?9?9?9?9*9?9*9*9?9*_?9?9*9?9*9,28.8,22.8,69,98090,1340,1392,439,568,54,516,68218,5136,56807,171,180,3.5,8,8,777.7,77777,9,999999999,0,0.0000,0,0,999.000,0.0,99.0
2014,3,1,14,0,?9?9?9?9E0?9?9?9?9*9?9?9?9?9*9?9*9*9?9*_?9?9*9?9*9,29.1,22.8,71,98090,1253,1392,441,547,78,476,65593,7450,52365,168,180,3.8,8,8,777.7,77777,9,999999999,0,0.0000,0,0,999.000,0.2,99.0
2014,3,1,15,0,?9?9?9?9E0?9?9?9?9*9?9?9?9?9*9?9*9*9?9*_?9?9*9?9*9,29.3,22.8,68,98090,1084,1392,442,484,97,408,58032,9236,44870,167,180,4.3,8,8,777.7,77777,9,999999999,0,0.0000,0,0,999.000,0.0,99.0
2014,3,1,16,0,?9?9?9?9E0?9?9?9?9*9?9?9?9?9*9?9*9*9?9*_?9?9*9?9*9,29.1,22.8,71,98090,846,1392,441,384,131,304,46102,12480,33481,159,180,4.8,8,8,777.7,77777,9,999999999,0,0.0000,0,0,999.000,0.2,99.0
2014,3,1,17,0,?9?9?9?9E0?9?9?9?9*9?9?9?9?9*9?9*9*9?9*_?9?9*9?9*9,28.7,22.7,72,98090,555,1392,439,256,219,169,30762,20765,18622,135,180,4.5,8,8,777.7,77777,9,999999999,0,0.0000,0,0,999.000,0.0,99.0
2014,3,1,18,0,?9?9?9?9E0?9?9?9?9*9?9?9?9?9*9?9*9*9?9*_?9?9*9?9*9,28.1,22.6,74,98090,232,1392,435,114,239,74,13622,22750,8138,143,180,3.6,8,8,777.7,77777,9,999999999,0,0.0000,0,0,999.000,0.0,99.0
2014,3,1,19,0,?9?9?9?9E0?9?9?9?9*9?9?9?9?9*9?9*9*9?9*_?9?9*9?9*9,27.6,22.5,75,98090,0,1392,432,3,0,0,332,0,0,0,180,3.1,8,8,777.7,77777,9,999999999,0,0.0000,0,0,999.000,0.1,99.0
2014,3,1,20,0,?9?9?9?9E0?9?9?9?9*9?9?9?9?9*9?9*9*9?9*_?9?9*9?9*9,27.2,22.4,76,98090,0,1392,429,0,0,0,0,0,0,0,180,2.0,8,8,777.7,77777,9,999999999,0,0.0000,0,0,999.000,0.3,99.0
2014,3,1,21,0,?9?9?9?9E0?9?9?9?9*9?9?9?9?9*9?9*9*9?9*_?9?9*9?9*9,26.7,22.3,77,98090,0,1392,427,0,0,0,0,0,0,0,180,1.2,8,8,777.7,77777,9,999999999,0,0.0000,0,0,999.000,0.0,99.0
2014,3,1,22,0,?9?9?9?9E0?9?9?9?9*9?9?9?9?9*9?9*9*9?9*_?9?9*9?9*9,26.3,22.2,75,98090,0,1392,417,0,0,0,0,0,0,0,180,1.2,7,7,777.7,77777,9,999999999,0,0.0000,0,0,999.000,0.0,99.0
2014,3,1,23,0,?9?9?9?9E0?9?9?9?9*9?9?9?9?9*9?9*9*9?9*_?9?9*9?9*9,25.8,22.1,76,98090,0,1392,415,0,0,0,0,0,0,0,180,1.2,7,7,777.7,77777,9,999999999,0,0.0000,0,0,999.000,0.0,99.0
2014,3,1,24,0,?9?9?9?9E0?9?9?9?9*9?9?9?9?9*9?9*9*9?9*_?9?9*9?9*9,25.4,21.6,80,98090,0,1392,411,0,0,0,0,0,0,0,180,1.4,7,7,777.7,77777,9,999999999,0,0.0000,0,0,999.000,0.1,99.0
2014,3,2,1,0,?9?9?9?9E0?9?9?9?9*9?9?9?9?9*9?9*9*9?9*_?9?9*9?9*9,25.1,21.6,77,98090,0,1392,410,0,0,0,0,0,0,0,180,1.4,7,7,777.7,77777,9,999999999,0,0.0000,0,0,999.000,0.0,99.0
2014,3,2,2,0,?9?9?9?9E0?9?9?9?9*9?9?9?9?9*9?9*9*9?9*_?9?9*9?9*9,24.9,21.5,78,98090,0,1392,409,0,0,0,0,0,0,0,180,1.4,7,7,777.7,77777,9,999999999,0,0.0000,0,0,999.000,0.0,99.0
2014,3,2,3,0,?9?9?9?9E0?9?9?9?9*9?9?9?9?9*9?9*9*9?9*_?9?9*9?9*9,24.7,21.5,83,98090,0,1392,408,0,0,0,0,0,0,0,180,1.4,7,7,777.7,77777,9,999999999,0,0.0000,0,0,999.000,0.1,99.0
2014,3,2,4,0,?9?9?9?9E0?9?9?9?9*9?9?9?9?9*9?9*9*9?9*_?9?9*9?9*9,24.5,21.5,84,98090,0,1391,406,0,0,0,0,0,0,0,180,1.4,7,7,777.7,77777,9,999999999,0,0.0000,0,0,999.000,0.0,99.0
2014,3,2,5,0,?9?9?9?9E0?9?9?9?9*9?9?9?9?9*9?9*9*9?9*_?9?9*9?9*9,24.2,21.5,80,98090,0,1391,400,0,0,0,0,0,0,0,180,1.4,6,6,777.7,77777,9,999999999,0,0.0000,0,0,999.000,0.0,99.0
2014,3,2,6,0,?9?9?9?9E0?9?9?9?9*9?9?9?9?9*9?9*9*9?9*_?9?9*9?9*9,24.1,21.5,81,98090,0,1391,400,0,0,0,0,0,0,0,180,1.4,6,6,777.7,77777,9,999999999,0,0.0000,0,0,999.000,0.0,99.0
2014,3,2,7,0,?9?9?9?9E0?9?9?9?9*9?9?9?9?9*9?9*9*9?9*_?9?9*9?9*9,23.9,21.5,86,98090,238,1391,399,6,0,6,745,0,683,12,180,1.4,6,6,777.7,77777,9,999999999,0,0.0000,0,0,999.000,0.0,99.0
2014,3,2,8,0,?9?9?9?9E0?9?9?9?9*9?9?9?9?9*9?9*9*9?9*_?9?9*9?9*9,23.8,21.5,87,98090,561,1391,398,190,70,162,22816,6641,17819,128,180,1.4,6,6,777.7,77777,9,999999999,0,0.0000,0,0,999.000,0.0,99.0
2014,3,2,9,0,?9?9?9?9E0?9?9?9?9*9?9?9?9?9*9?9*9*9?9*_?9?9*9?9*9,27.1,21.7,70,98090,850,1391,410,431,239,285,51727,22704,31357,149,180,1.4,4,4,777.7,77777,9,999999999,0,0.0000,0,0,999.000,0.0,99.0
2014,3,2,10,0,?9?9?9?9E0?9?9?9?9*9?9?9?9?9*9?9*9*9?9*_?9?9*9?9*9,28.3,21.8,66,98090,1087,1391,404,652,403,337,78247,38318,37084,137,180,1.9,1,1,777.7,77777,9,999999999,0,0.0000,0,0,999.000,0.0,99.0
2014,3,2,11,0,?9?9?9?9E0?9?9?9?9*9?9?9?9?9*9?9*9*9?9*_?9?9*9?9*9,29.4,21.8,62,98090,1253,1391,402,844,542,356,101317,51513,39156,126,180,2.9,0,0,777.7,77777,9,999999999,0,0.0000,0,0,999.000,0.0,99.0
2014,3,2,12,0,?9?9?9?9E0?9?9?9?9*9?9?9?9?9*9?9*9*9?9*_?9?9*9?9*9,30.3,21.9,60,98090,1339,1391,407,951,618,356,114146,58755,39178,118,180,4.0,0,0,777.7,77777,9,999999999,0,0.0000,0,0,999.000,0.0,99.0
2014,3,2,13,0,?9?9?9?9E0?9?9?9?9*9?9?9?9?9*9?9*9*9?9*_?9?9*9?9*9,31.0,21.9,58,98090,1337,1391,410,978,704,301,117359,66896,33127,100,180,4.4,0,0,777.7,77777,9,999999999,0,0.0000,0,0,999.000,0.0,99.0
2014,3,2,14,0,?9?9?9?9E0?9?9?9?9*9?9?9?9?9*9?9*9*9?9*_?9?9*9?9*9,31.4,22.0,57,98090,1249,1391,412,926,802,206,111174,76226,22667,73,180,4.4,0,0,777.7,77777,9,999999999,0,0.0000,0,0,999.000,0.0,99.0
2014,3,2,15,0,?9?9?9?9E0?9?9?9?9*9?9?9?9?9*9?9*9*9?9*_?9?9*9?9*9,31.5,22.0,56,98090,1080,1391,413,812,924,94,97390,87770,10379,39,180,4.7,0,0,777.7,77777,9,999999999,0,0.0000,0,0,999.000,0.0,99.0
2014,3,2,16,0,?9?9?9?9E0?9?9?9?9*9?9?9?9?9*9?9*9*9?9*_?9?9*9?9*9,31.4,22.0,57,98090,842,1391,420,646,793,166,77478,75354,18238,87,180,4.0,1,1,777.7,77777,9,999999999,0,0.0000,0,0,999.000,0.0,99.0
2014,3,2,17,0,?9?9?9?9E0?9?9?9?9*9?9?9?9?9*9?9*9*9?9*_?9?9*9?9*9,30.8,21.9,58,98090,551,1391,427,432,750,136,51893,71260,14940,109,180,3.2,3,3,777.7,77777,9,999999999,0,0.0000,0,0,999.000,0.0,99.0
2014,3,2,18,0,?9?9?9?9E0?9?9?9?9*9?9?9?9?9*9?9*9*9?9*_?9?9*9?9*9,30.0,21.9,65,98090,228,1391,433,189,382,127,22704,36331,13997,250,180,1.9,6,6,777.7,77777,9,999999999,0,0.0000,0,0,999.000,0.0,99.0
2014,3,2,19,0,?9?9?9?9E0?9?9?9?9*9?9?9?9?9*9?9*9*9?9*_?9?9*9?9*9,29.4,21.8,67,98090,0,1391,429,4,0,0,498,0,0,0,180,1.4,6,6,777.7,77777,9,999999999,0,0.0000,0,0,999.000,0.2,99.0
2014,3,2,20,0,?9?9?9?9E0?9?9?9?9*9?9?9?9?9*9?9*9*9?9*_?9?9*9?9*9,28.8,21.8,77,98090,0,1391,426,0,0,0,0,0,0,0,180,1.4,6,6,777.7,77777,9,999999999,9,0.0000,0,0,999.000,9.5,99.0
2014,3,2,21,0,?9?9?9?9E0?9?9?9?9*9?9?9?9?9*9?9*9*9?9*_?9?9*9?9*9,28.1,21.8,70,98090,0,1391,422,0,0,0,0,0,0,0,180,1.4,6,6,777.7,77777,9,999999999,0,0.0000,0,0,999.000,0.6,99.0
2014,3,2,22,0,?9?9?9?9E0?9?9?9?9*9?9?9?9?9*9?9*9*9?9*_?9?9*9?9*9,27.5,21.7,73,98090,0,1391,419,0,0,0,0,0,0,0,180,1.4,6,6,777.7,77777,9,999999999,0,0.0000,0,0,999.000,0.3,99.0
2014,3,2,23,0,?9?9?9?9E0?9?9?9?9*9?9?9?9?9*9?9*9*9?9*_?9?9*9?9*9,26.9,21.7,75,98090,0,1391,415,0,0,0,0,0,0,0,180,1.4,6,6,777.7,77777,9,999999999,0,0.0000,0,0,999.000,0.1,99.0
2014,3,2,24,0,?9?9?9?9E0?9?9?9?9*9?9?9?9?9*9?9*9*9?9*_?9?9*9?9*9,26.3,22.1,82,98090,0,1391,412,0,0,0,0,0,0,0,180,1.4,6,6,777.7,77777,9,999999999,0,0.0000,0,0,999.000,0.0,99.0
2014,3,3,1,0,?9?9?9?9E0?9?9?9?9*9?9?9?9?9*9?9*9*9?9*_?9?9*9?9*9,26.0,22.0,83,98090,0,1391,410,0,0,0,0,0,0,0,180,1.4,6,6,777.7,77777,9,999999999,0,0.0000,0,0,999.000,0.0,99.0
2014,3,3,2,0,?9?9?9?9E0?9?9?9?9*9?9?9?9?9*9?9*9*9?9*_?9?9*9?9*9,25.6,22.0,80,98090,0,1391,409,0,0,0,0,0,0,0,180,1.4,6,6,777.7,77777,9,999999999,0,0.0000,0,0,999.000,0.0,99.0
2014,3,3,3,0,?9?9?9?9E0?9?9?9?9*9?9?9?9?9*9?9*9*9?9*_?9?9*9?9*9,25.3,22.0,81,98090,0,1391,407,0,0,0,0,0,0,0,180,1.4,6,6,777.7,77777,9,999999999,0,0.0000,0,0,999.000,0.0,99.0
2014,3,3,4,0,?9?9?9?9E0?9?9?9?9*9?9?9?9?9*9?9*9*9?9*_?9?9*9?9*9,25.0,21.9,82,98090,0,1391,405,0,0,0,0,0,0,0,180,1.4,6,6,777.7,77777,9,999999999,0,0.0000,0,0,999.000,0.0,99.0
2014,3,3,5,0,?9?9?9?9E0?9?9?9?9*9?9?9?9?9*9?9*9*9?9*_?9?9*9?9*9,24.7,21.9,84,98090,0,1391,404,0,0,0,0,0,0,0,180,1.4,6,6,777.7,77777,9,999999999,0,0.0000,0,0,999.000,0.0,99.0
2014,3,3,6,0,?9?9?9?9E0?9?9?9?9*9?9?9?9?9*9?9*9*9?9*_?9?9*9?9*9,24.5,21.8,85,98090,0,1391,402,0,0,0,0,0,0,0,180,1.4,6,6,777.7,77777,9,999999999,0,0.0000,0,0,999.000,0.0,99.0
2014,3,3,7,0,?9?9?9?9E0?9?9?9?9*9?9?9?9?9*9?9*9*9?9*_?9?9*9?9*9,24.3,21.8,86,98090,236,1391,401,5,0,5,564,0,517,9,180,1.4,6,6,777.7,77777,9,999999999,0,0.0000,0,0,999.000,0.0,99.0
2014,3,3,8,0,?9?9?9?9E0?9?9?9?9*9?9?9?9?9*9?9*9*9?9*_?9?9*9?9*9,24.1,21.8,87,98090,559,1391,400,196,78,165,23569,7421,18158,131,180,1.4,6,6,777.7,77777,9,999999999,0,0.0000,0,0,999.000,0.0,99.0
2014,3,3,9,0,?9?9?9?9E0?9?9?9?9*9?9?9?9?9*9?9*9*9?9*_?9?9*9?9*9,27.1,22.2,74,98090,848,1391,407,442,264,280,52990,25117,30845,146,180,1.4,3,3,777.7,77777,9,999999999,0,0.0000,0,0,999.000,0.0,99.0
2014,3,3,10,0,?9?9?9?9E0?9?9?9?9*9?9?9?9?9*9?9*9*9?9*_?9?9*9?9*9,28.2,22.3,70,98090,1084,1391,396,664,443,318,79644,42084,35023,130,180,1.5,0,0,777.7,77777,9,999999999,0,0.0000,0,0,999.000,0.0,99.0
2014,3,3,11,0,?9?9?9?9E0?9?9?9?9*9?9?9?9?9*9?9*9*9?9*_?9?9*9?9*9,29.2,22.4,67,98090,1251,1391,401,830,525,359,99650,49840,39453,127,180,1.9,0,0,777.7,77777,9,999999999,0,0.0000,0,0,999.000,0.0,99.0
2014,3,3,12,0,?9?9?9?9E0?9?9?9?9*9?9?9?9?9*9?9*9*9?9*_?9?9*9?9*9,29.9,22.5,64,98090,1336,1391,406,935,633,327,112211,60097,36017,108,180,2.8,0,0,777.7,77777,9,999999999,0,0.0000,0,0,999.000,0.0,99.0
2014,3,3,13,0,?9?9?9?9E0?9?9?9?9*9?9?9?9?9*9?9*9*9?9*_?9?9*9?9*9,30.5,22.6,62,98090,1334,1391,409,985,715,299,118231,67945,32898,99,180,3.9,0,0,777.7,77777,9,999999999,0,0.0000,0,0,999.000,0.0,99.0
2014,3,3,14,0,?9?9?9?9E0?9?9?9?9*9?9?9?9?9*9?9*9*9?9*_?9?9*9?9*9,30.9,22.6,61,98090,1246,1391,411,955,908,141,114552,86291,15505,50,180,4.7,0,0,777.7,77777,9,999999999,0,0.0000,0,0,999.000,0.0,99.0
2014,3,3,15,0,?9?9?9?9E0?9?9?9?9*9?9?9?9?9*9?9*9*9?9*_?9?9*9?9*9,31.1,22.7,60,98090,1077,1391,412,848,897,153,101700,85223,16850,63,180,4.9,0,0,777.7,77777,9,999999999,0,0.0000,0,0,999.000,0.0,99.0
2014,3,3,16,0,?9?9?9?9E0?9?9?9?9*9?9?9?9?9*9?9*9*9?9*_?9?9*9?9*9,31.0,22.6,61,98090,838,1391,411,661,812,172,79297,77165,18872,91,180,4.3,0,0,777.7,77777,9,999999999,0,0.0000,0,0,999.000,0.0,99.0
2014,3,3,17,0,?9?9?9?9E0?9?9?9?9*9?9?9?9?9*9?9*9*9?9*_?9?9*9?9*9,30.5,22.6,62,98090,547,1391,426,433,749,139,51931,71131,15274,113,180,3.0,3,3,777.7,77777,9,999999999,0,0.0000,0,0,999.000,0.0,99.0
2014,3,3,18,0,?9?9?9?9E0?9?9?9?9*9?9?9?9?9*9?9*9*9?9*_?9?9*9?9*9,29.7,22.5,70,98090,223,1391,432,185,379,125,22252,36004,13774,251,180,2.9,6,6,777.7,77777,9,999999999,0,0.0000,0,0,999.000,0.0,99.0
2014,3,3,19,0,?9?9?9?9E0?9?9?9?9*9?9?9?9?9*9?9*9*9?9*_?9?9*9?9*9,29.0,22.4,72,98090,0,1391,428,4,0,0,424,0,0,0,180,1.9,6,6,777.7,77777,9,999999999,0,0.0000,0,0,999.000,0.1,99.0
2014,3,3,20,0,?9?9?9?9E0?9?9?9?9*9?9?9?9?9*9?9*9*9?9*_?9?9*9?9*9,28.4,22.3,79,98090,0,1391,424,0,0,0,0,0,0,0,180,1.4,6,6,777.7,77777,9,999999999,2,0.0000,0,0,999.000,2.7,99.0
2014,3,3,21,0,?9?9?9?9E0?9?9?9?9*9?9?9?9?9*9?9*9*9?9*_?9?9*9?9*9,27.7,22.2,77,98090,0,1391,420,0,0,0,0,0,0,0,180,1.4,6,6,777.7,77777,9,999999999,0,0.0000,0,0,999.000,0.1,99.0
2014,3,3,22,0,?9?9?9?9E0?9?9?9?9*9?9?9?9?9*9?9*9*9?9*_?9?9*9?9*9,27.0,22.2,79,98090,0,1391,417,0,0,0,0,0,0,0,180,1.4,6,6,777.7,77777,9,999999999,0,0.0000,0,0,999.000,0.0,99.0
2014,3,3,23,0,?9?9?9?9E0?9?9?9?9*9?9?9?9?9*9?9*9*9?9*_?9?9*9?9*9,26.4,22.1,77,98090,0,1391,413,0,0,0,0,0,0,0,180,1.4,6,6,777.7,77777,9,999999999,0,0.0000,0,0,999.000,0.0,99.0
2014,3,3,24,0,?9?9?9?9E0?9?9?9?9*9?9?9?9?9*9?9*9*9?9*_?9?9*9?9*9,25.7,22.2,90,98090,0,1391,409,0,0,0,0,0,0,0,180,2.0,6,6,777.7,77777,9,999999999,2,0.0000,0,0,999.000,2.7,99.0
2014,3,4,1,0,?9?9?9?9E0?9?9?9?9*9?9?9?9?9*9?9*9*9?9*_?9?9*9?9*9,25.4,22.1,86,98090,0,1391,407,0,0,0,0,0,0,0,180,2.0,6,6,777.7,77777,9,999999999,0,0.0000,0,0,999.000,0.1,99.0
2014,3,4,2,0,?9?9?9?9E0?9?9?9?9*9?9?9?9?9*9?9*9*9?9*_?9?9*9?9*9,25.0,22.0,87,98090,0,1391,405,0,0,0,0,0,0,0,180,2.0,6,6,777.7,77777,9,999999999,0,0.0000,0,0,999.000,0.0,99.0
2014,3,4,3,0,?9?9?9?9E0?9?9?9?9*9?9?9?9?9*9?9*9*9?9*_?9?9*9?9*9,24.7,22.0,88,98090,0,1391,404,0,0,0,0,0,0,0,180,2.0,6,6,777.7,77777,9,999999999,0,0.0000,0,0,999.000,0.0,99.0
2014,3,4,4,0,?9?9?9?9E0?9?9?9?9*9?9?9?9?9*9?9*9*9?9*_?9?9*9?9*9,24.4,21.9,85,98090,0,1390,402,0,0,0,0,0,0,0,180,2.0,6,6,777.7,77777,9,999999999,0,0.0000,0,0,999.000,0.0,99.0
2014,3,4,5,0,?9?9?9?9E0?9?9?9?9*9?9?9?9?9*9?9*9*9?9*_?9?9*9?9*9,24.0,21.8,86,98090,0,1390,400,0,0,0,0,0,0,0,180,2.0,6,6,777.7,77777,9,999999999,0,0.0000,0,0,999.000,0.0,99.0
2014,3,4,6,0,?9?9?9?9E0?9?9?9?9*9?9?9?9?9*9?9*9*9?9*_?9?9*9?9*9,23.8,21.7,87,98090,0,1390,398,0,0,0,0,0,0,0,180,2.0,6,6,777.7,77777,9,999999999,0,0.0000,0,0,999.000,0.0,99.0
2014,3,4,7,0,?9?9?9?9E0?9?9?9?9*9?9?9?9?9*9?9*9*9?9*_?9?9*9?9*9,23.5,21.7,88,98090,234,1390,397,5,0,5,648,0,594,10,180,2.0,6,6,777.7,77777,9,999999999,0,0.0000,0,0,999.000,0.0,99.0
2014,3,4,8,0,?9?9?9?9E0?9?9?9?9*9?9?9?9?9*9?9*9*9?9*_?9?9*9?9*9,23.3,21.6,88,98090,557,1390,396,194,80,162,23256,7619,17791,129,180,2.0,6,6,777.7,77777,9,999999999,0,0.0000,0,0,999.000,0.0,99.0
2014,3,4,9,0,?9?9?9?9E0?9?9?9?9*9?9?9?9?9*9?9*9*9?9*_?9?9*9?9*9,26.4,22.4,78,98090,846,1390,407,429,239,283,51420,22694,31150,148,180,2.0,4,4,777.7,77777,9,999999999,0,0.0000,0,0,999.000,0.0,99.0
2014,3,4,10,0,?9?9?9?9E0?9?9?9?9*9?9?9?9?9*9?9*9*9?9*_?9?9*9?9*9,27.5,22.7,74,98090,1082,1390,406,637,376,344,76417,35744,37843,141,180,2.0,2,2,777.7,77777,9,999999999,0,0.0000,0,0,999.000,0.0,99.0
2014,3,4,11,0,?9?9?9?9E0?9?9?9?9*9?9?9?9?9*9?9*9*9?9*_?9?9*9?9*9,28.5,22.9,71,98090,1248,1390,398,812,503,361,97451,47751,39691,128,180,2.0,0,0,777.7,77777,9,999999999,0,0.0000,0,0,999.000,0.0,99.0
2014,3,4,12,0,?9?9?9?9E0?9?9?9?9*9?9?9?9?9*9?9*9*9?9*_?9?9*9?9*9,29.3,23.1,69,98090,1333,1390,403,928,621,332,111352,59018,36539,110,180,2.0,0,0,777.7,77777,9,999999999,0,0.0000,0,0,999.000,0.0,99.0
2014,3,4,13,0,?9?9?9?9E0?9?9?9?9*9?9?9?9?9*9?9*9*9?9*_?9?9*9?9*9,29.9,23.3,67,98090,1331,1390,406,958,656,329,114925,62348,36218,109,180,2.2,0,0,777.7,77777,9,999999999,0,0.0000,0,0,999.000,0.0,99.0
2014,3,4,14,0,?9?9?9?9E0?9?9?9?9*9?9?9?9?9*9?9*9*9?9*_?9?9*9?9*9,30.3,23.4,66,98090,1242,1390,408,932,788,227,111794,74897,24976,81,180,2.8,0,0,777.7,77777,9,999999999,0,0.0000,0,0,999.000,0.0,99.0
2014,3,4,15,0,?9?9?9?9E0?9?9?9?9*9?9?9?9?9*9?9*9*9?9*_?9?9*9?9*9,30.4,23.4,66,98090,1073,1390,409,835,944,107,100188,89681,11717,44,180,3.0,0,0,777.7,77777,9,999999999,0,0.0000,0,0,999.000,0.0,99.0
2014,3,4,16,0,?9?9?9?9E0?9?9?9?9*9?9?9?9?9*9?9*9*9?9*_?9?9*9?9*9,30.4,23.4,66,98090,834,1390,409,676,791,202,81098,75109,22190,107,180,3.1,0,0,777.7,77777,9,999999999,0,0.0000,0,0,999.000,0.0,99.0
2014,3,4,17,0,?9?9?9?9E0?9?9?9?9*9?9?9?9?9*9?9*9*9?9*_?9?9*9?9*9,29.9,23.3,67,98090,542,1390,414,453,791,145,54397,75189,15948,118,180,2.8,1,1,777.7,77777,9,999999999,0,0.0000,0,0,999.000,0.0,99.0
2014,3,4,18,0,?9?9?9?9E0?9?9?9?9*9?9?9?9?9*9?9*9*9?9*_?9?9*9?9*9,29.2,23.1,69,98090,219,1390,426,201,414,137,24119,39319,15022,279,180,2.0,5,5,777.7,77777,9,999999999,0,0.0000,0,0,999.000,0.0,99.0
2014,3,4,19,0,?9?9?9?9E0?9?9?9?9*9?9?9?9?9*9?9*9*9?9*_?9?9*9?9*9,28.6,23.0,71,98090,0,1390,423,6,0,0,716,0,0,0,180,2.0,5,5,777.7,77777,9,999999999,0,0.0000,0,0,999.000,0.0,99.0
2014,3,4,20,0,?9?9?9?9E0?9?9?9?9*9?9?9?9?9*9?9*9*9?9*_?9?9*9?9*9,28.1,22.8,72,98090,0,1390,419,0,0,0,0,0,0,0,180,2.0,5,5,777.7,77777,9,999999999,0,0.0000,0,0,999.000,0.0,99.0
2014,3,4,21,0,?9?9?9?9E0?9?9?9?9*9?9?9?9?9*9?9*9*9?9*_?9?9*9?9*9,27.5,22.7,79,98090,0,1390,420,0,0,0,0,0,0,0,180,2.0,6,6,777.7,77777,9,999999999,0,0.0000,0,0,999.000,0.0,99.0
2014,3,4,22,0,?9?9?9?9E0?9?9?9?9*9?9?9?9?9*9?9*9*9?9*_?9?9*9?9*9,26.9,22.5,81,98090,0,1390,417,0,0,0,0,0,0,0,180,2.0,6,6,777.7,77777,9,999999999,0,0.0000,0,0,999.000,0.1,99.0
2014,3,4,23,0,?9?9?9?9E0?9?9?9?9*9?9?9?9?9*9?9*9*9?9*_?9?9*9?9*9,26.4,22.4,82,98090,0,1390,413,0,0,0,0,0,0,0,180,2.0,6,6,777.7,77777,9,999999999,0,0.0000,0,0,999.000,0.0,99.0
2014,3,4,24,0,?9?9?9?9E0?9?9?9?9*9?9?9?9?9*9?9*9*9?9*_?9?9*9?9*9,25.8,22.3,77,98090,0,1390,410,0,0,0,0,0,0,0,180,1.9,6,6,777.7,77777,9,999999999,0,0.0000,0,0,999.000,0.0,99.0
2014,3,5,1,0,?9?9?9?9E0?9?9?9?9*9?9?9?9?9*9?9*9*9?9*_?9?9*9?9*9,25.5,22.3,79,98090,0,1390,409,0,0,0,0,0,0,0,180,1.9,6,6,777.7,77777,9,999999999,0,0.0000,0,0,999.000,0.0,99.0
2014,3,5,2,0,?9?9?9?9E0?9?9?9?9*9?9?9?9?9*9?9*9*9?9*_?9?9*9?9*9,25.3,22.3,80,98090,0,1390,412,0,0,0,0,0,0,0,180,1.9,7,7,777.7,77777,9,999999999,0,0.0000,0,0,999.000,0.0,99.0
2014,3,5,3,0,?9?9?9?9E0?9?9?9?9*9?9?9?9?9*9?9*9*9?9*_?9?9*9?9*9,25.0,22.3,81,98090,0,1390,410,0,0,0,0,0,0,0,180,1.9,7,7,777.7,77777,9,999999999,0,0.0000,0,0,999.000,0.0,99.0
2014,3,5,4,0,?9?9?9?9E0?9?9?9?9*9?9?9?9?9*9?9*9*9?9*_?9?9*9?9*9,24.7,22.3,82,98090,0,1389,409,0,0,0,0,0,0,0,180,1.9,7,7,777.7,77777,9,999999999,0,0.0000,0,0,999.000,0.0,99.0
2014,3,5,5,0,?9?9?9?9E0?9?9?9?9*9?9?9?9?9*9?9*9*9?9*_?9?9*9?9*9,24.4,22.3,83,98090,0,1389,407,0,0,0,0,0,0,0,180,1.9,7,7,777.7,77777,9,999999999,0,0.0000,0,0,999.000,0.0,99.0
2014,3,5,6,0,?9?9?9?9E0?9?9?9?9*9?9?9?9?9*9?9*9*9?9*_?9?9*9?9*9,24.2,22.3,89,98090,0,1389,412,0,0,0,0,0,0,0,180,1.9,8,8,777.7,77777,9,999999999,0,0.0000,0,0,999.000,0.0,99.0
2014,3,5,7,0,?9?9?9?9E0?9?9?9?9*9?9?9?9?9*9?9*9*9?9*_?9?9*9?9*9,24.0,22.3,85,98090,232,1389,411,3,0,3,370,0,339,6,180,1.9,8,8,777.7,77777,9,999999999,0,0.0000,0,0,999.000,0.0,99.0
2014,3,5,8,0,?9?9?9?9E0?9?9?9?9*9?9?9?9?9*9?9*9*9?9*_?9?9*9?9*9,23.8,22.3,91,98090,554,1389,410,123,0,123,14780,0,13549,98,180,1.9,8,8,777.7,77777,9,999999999,0,0.0000,0,0,999.000,0.1,99.0
2014,3,5,9,0,?9?9?9?9E0?9?9?9?9*9?9?9?9?9*9?9*9*9?9*_?9?9*9?9*9,26.4,22.3,79,98090,844,1389,425,277,34,256,33227,3274,28157,134,180,1.9,8,8,777.7,77777,9,999999999,0,0.0000,0,0,999.000,0.1,99.0
2014,3,5,10,0,?9?9?9?9E0?9?9?9?9*9?9?9?9?9*9?9*9*9?9*_?9?9*9?9*9,27.4,22.3,76,98090,1079,1389,423,414,38,384,49669,3602,42290,158,180,1.9,7,7,777.7,77777,9,999999999,0,0.0000,0,0,999.000,0.0,99.0
2014,3,5,11,0,?9?9?9?9E0?9?9?9?9*9?9?9?9?9*9?9*9*9?9*_?9?9*9?9*9,28.2,22.3,68,98090,1245,1389,428,520,66,461,62389,6246,50708,164,180,1.9,7,7,777.7,77777,9,999999999,0,0.0000,0,0,999.000,0.0,99.0
2014,3,5,12,0,?9?9?9?9E0?9?9?9?9*9?9?9?9?9*9?9*9*9?9*_?9?9*9?9*9,28.8,22.3,66,98090,1330,1389,432,586,63,526,70362,6021,57824,175,180,1.9,7,7,777.7,77777,9,999999999,0,0.0000,0,0,999.000,0.0,99.0
2014,3,5,13,0,?9?9?9?9E0?9?9?9?9*9?9?9?9?9*9?9*9*9?9*_?9?9*9?9*9,29.3,22.3,65,98090,1328,1389,434,608,74,537,72989,7042,59114,179,180,2.6,7,7,777.7,77777,9,999999999,0,0.0000,0,0,999.000,0.0,99.0
2014,3,5,14,0,?9?9?9?9E0?9?9?9?9*9?9?9?9?9*9?9*9*9?9*_?9?9*9?9*9,29.6,22.3,68,98090,1239,1389,436,584,154,447,70076,14592,49173,160,180,2.8,7,7,777.7,77777,9,999999999,0,0.0000,0,0,999.000,0.0,99.0
2014,3,5,15,0,?9?9?9?9E0?9?9?9?9*9?9?9?9?9*9?9*9*9?9*_?9?9*9?9*9,29.3,22.3,73,98090,1069,1389,442,347,51,307,41645,4886,33823,127,180,4.0,8,8,777.7,77777,9,999999999,2,0.0000,0,0,999.000,2.7,99.0
2014,3,5,16,0,?9?9?9?9E0?9?9?9?9*9?9?9?9?9*9?9*9*9?9*_?9?9*9?9*9,29.3,22.3,69,98090,830,1389,435,431,279,264,51673,26501,29051,141,180,3.5,7,7,777.7,77777,9,999999999,0,0.0000,0,0,999.000,0.0,99.0
2014,3,5,17,0,?9?9?9?9E0?9?9?9?9*9?9?9?9?9*9?9*9*9?9*_?9?9*9?9*9,29.2,22.3,65,98090,538,1389,425,389,643,141,46704,61076,15475,116,180,2.9,5,5,777.7,77777,9,999999999,0,0.0000,0,0,999.000,0.0,99.0
2014,3,5,18,0,?9?9?9?9E0?9?9?9?9*9?9?9?9?9*9?9*9*9?9*_?9?9*9?9*9,28.9,22.3,66,98090,214,1389,400,267,241,230,32022,22906,25311,481,180,2.0,0,0,777.7,77777,9,999999999,0,0.0000,0,0,999.000,0.0,99.0
2014,3,5,19,0,?9?9?9?9E0?9?9?9?9*9?9?9?9?9*9?9*9*9?9*_?9?9*9?9*9,28.4,22.3,68,98090,0,1389,397,12,0,0,1385,0,0,0,180,1.9,0,0,777.7,77777,9,999999999,0,0.0000,0,0,999.000,0.0,99.0
2014,3,5,20,0,?9?9?9?9E0?9?9?9?9*9?9?9?9?9*9?9*9*9?9*_?9?9*9?9*9,27.9,22.3,69,98090,0,1389,402,0,0,0,0,0,0,0,180,1.9,1,1,777.7,77777,9,999999999,0,0.0000,0,0,999.000,0.0,99.0
2014,3,5,21,0,?9?9?9?9E0?9?9?9?9*9?9?9?9?9*9?9*9*9?9*_?9?9*9?9*9,27.4,22.3,71,98090,0,1389,399,0,0,0,0,0,0,0,180,1.9,1,1,777.7,77777,9,999999999,0,0.0000,0,0,999.000,0.0,99.0
2014,3,5,22,0,?9?9?9?9E0?9?9?9?9*9?9?9?9?9*9?9*9*9?9*_?9?9*9?9*9,26.9,22.3,73,98090,0,1389,397,0,0,0,0,0,0,0,180,1.9,1,1,777.7,77777,9,999999999,0,0.0000,0,0,999.000,0.0,99.0
2014,3,5,23,0,?9?9?9?9E0?9?9?9?9*9?9?9?9?9*9?9*9*9?9*_?9?9*9?9*9,26.4,22.3,75,98090,0,1389,399,0,0,0,0,0,0,0,180,1.9,2,2,777.7,77777,9,999999999,0,0.0000,0,0,999.000,0.0,99.0
2014,3,5,24,0,?9?9?9?9E0?9?9?9?9*9?9?9?9?9*9?9*9*9?9*_?9?9*9?9*9,25.9,21.9,78,98090,0,1389,396,0,0,0,0,0,0,0,180,1.9,2,2,777.7,77777,9,999999999,0,0.0000,0,0,999.000,0.0,99.0
2014,3,6,1,0,?9?9?9?9E0?9?9?9?9*9?9?9?9?9*9?9*9*9?9*_?9?9*9?9*9,25.6,21.9,79,98090,0,1389,395,0,0,0,0,0,0,0,180,1.9,2,2,777.7,77777,9,999999999,0,0.0000,0,0,999.000,0.0,99.0
2014,3,6,2,0,?9?9?9?9E0?9?9?9?9*9?9?9?9?9*9?9*9*9?9*_?9?9*9?9*9,25.4,21.9,81,98090,0,1389,397,0,0,0,0,0,0,0,180,1.9,3,3,777.7,77777,9,999999999,0,0.0000,0,0,999.000,0.0,99.0
2014,3,6,3,0,?9?9?9?9E0?9?9?9?9*9?9?9?9?9*9?9*9*9?9*_?9?9*9?9*9,25.1,21.9,82,98090,0,1389,396,0,0,0,0,0,0,0,180,1.9,3,3,777.7,77777,9,999999999,0,0.0000,0,0,999.000,0.0,99.0
2014,3,6,4,0,?9?9?9?9E0?9?9?9?9*9?9?9?9?9*9?9*9*9?9*_?9?9*9?9*9,24.9,21.9,83,98090,0,1388,398,0,0,0,0,0,0,0,180,1.9,4,4,777.7,77777,9,999999999,0,0.0000,0,0,999.000,0.0,99.0
2014,3,6,5,0,?9?9?9?9E0?9?9?9?9*9?9?9?9?9*9?9*9*9?9*_?9?9*9?9*9,24.6,21.9,85,98090,0,1388,396,0,0,0,0,0,0,0,180,1.9,4,4,777.7,77777,9,999999999,0,0.0000,0,0,999.000,0.0,99.0
2014,3,6,6,0,?9?9?9?9E0?9?9?9?9*9?9?9?9?9*9?9*9*9?9*_?9?9*9?9*9,24.4,21.9,86,98090,0,1388,395,0,0,0,0,0,0,0,180,1.9,4,4,777.7,77777,9,999999999,0,0.0000,0,0,999.000,0.0,99.0
2014,3,6,7,0,?9?9?9?9E0?9?9?9?9*9?9?9?9?9*9?9*9*9?9*_?9?9*9?9*9,24.2,22.0,87,98090,230,1388,397,4,0,4,476,0,437,8,180,1.9,5,5,777.7,77777,9,999999999,0,0.0000,0,0,999.000,0.0,99.0
2014,3,6,8,0,?9?9?9?9E0?9?9?9?9*9?9?9?9?9*9?9*9*9?9*_?9?9*9?9*9,24.1,22.0,88,98090,552,1388,397,205,101,165,24605,9633,18125,132,180,1.9,5,5,777.7,77777,9,999999999,0,0.0000,0,0,999.000,0.0,99.0
2014,3,6,9,0,?9?9?9?9E0?9?9?9?9*9?9?9?9?9*9?9*9*9?9*_?9?9*9?9*9,26.8,21.8,74,98090,841,1388,396,462,325,266,55484,30839,29233,140,180,1.9,1,1,777.7,77777,9,999999999,0,0.0000,0,0,999.000,0.0,99.0
2014,3,6,10,0,?9?9?9?9E0?9?9?9?9*9?9?9?9?9*9?9*9*9?9*_?9?9*9?9*9,27.8,21.8,69,98090,1077,1388,393,692,541,273,83080,51360,30042,112,180,1.9,0,0,777.7,77777,9,999999999,0,0.0000,0,0,999.000,0.0,99.0
2014,3,6,11,0,?9?9?9?9E0?9?9?9?9*9?9?9?9?9*9?9*9*9?9*_?9?9*9?9*9,28.6,21.7,66,98090,1242,1388,397,871,596,338,104494,56574,37170,120,180,1.9,0,0,777.7,77777,9,999999999,0,0.0000,0,0,999.000,0.0,99.0
2014,3,6,12,0,?9?9?9?9E0?9?9?9?9*9?9?9?9?9*9?9*9*9?9*_?9?9*9?9*9,29.3,21.7,63,98090,1327,1388,401,985,758,261,118211,71988,28704,87,180,2.4,0,0,777.7,77777,9,999999999,0,0.0000,0,0,999.000,0.0,99.0
2014,3,6,13,0,?9?9?9?9E0?9?9?9?9*9?9?9?9?9*9?9*9*9?9*_?9?9*9?9*9,29.8,21.7,61,98090,1324,1388,404,1017,873,184,122002,82966,20211,61,180,2.5,0,0,777.7,77777,9,999999999,0,0.0000,0,0,999.000,0.0,99.0
2014,3,6,14,0,?9?9?9?9E0?9?9?9?9*9?9?9?9?9*9?9*9*9?9*_?9?9*9?9*9,30.1,21.6,60,98090,1235,1388,405,958,945,117,114906,89806,12857,42,180,3.4,0,0,777.7,77777,9,999999999,0,0.0000,0,0,999.000,0.0,99.0
2014,3,6,15,0,?9?9?9?9E0?9?9?9?9*9?9?9?9?9*9?9*9*9?9*_?9?9*9?9*9,30.2,21.6,60,98090,1065,1388,406,836,752,259,100308,71439,28535,108,180,3.2,0,0,777.7,77777,9,999999999,0,0.0000,0,0,999.000,0.0,99.0
2014,3,6,16,0,?9?9?9?9E0?9?9?9?9*9?9?9?9?9*9?9*9*9?9*_?9?9*9?9*9,30.1,21.6,60,98090,825,1388,405,659,815,175,79073,77463,19196,93,180,3.3,0,0,777.7,77777,9,999999999,0,0.0000,0,0,999.000,0.0,99.0
2014,3,6,17,0,?9?9?9?9E0?9?9?9?9*9?9?9?9?9*9?9*9*9?9*_?9?9*9?9*9,29.6,21.7,62,98090,533,1388,416,433,744,148,52001,70644,16299,123,180,3.1,2,2,777.7,77777,9,999999999,0,0.0000,0,0,999.000,0.0,99.0
2014,3,6,18,0,?9?9?9?9E0?9?9?9?9*9?9?9?9?9*9?9*9*9?9*_?9?9*9?9*9,29.0,21.7,64,98090,210,1388,427,177,428,113,21218,40695,12423,241,180,1.9,6,6,777.7,77777,9,999999999,0,0.0000,0,0,999.000,0.0,99.0
2014,3,6,19,0,?9?9?9?9E0?9?9?9?9*9?9?9?9?9*9?9*9*9?9*_?9?9*9?9*9,28.4,21.7,67,98090,0,1388,423,2,0,0,233,0,0,0,180,1.9,6,6,777.7,77777,9,999999999,0,0.0000,0,0,999.000,0.0,99.0
2014,3,6,20,0,?9?9?9?9E0?9?9?9?9*9?9?9?9?9*9?9*9*9?9*_?9?9*9?9*9,27.8,21.8,69,98090,0,1388,420,0,0,0,0,0,0,0,180,1.9,6,6,777.7,77777,9,999999999,0,0.0000,0,0,999.000,0.0,99.0
2014,3,6,21,0,?9?9?9?9E0?9?9?9?9*9?9?9?9?9*9?9*9*9?9*_?9?9*9?9*9,27.2,21.8,72,98090,0,1388,417,0,0,0,0,0,0,0,180,1.9,6,6,777.7,77777,9,999999999,0,0.0000,0,0,999.000,0.0,99.0
2014,3,6,22,0,?9?9?9?9E0?9?9?9?9*9?9?9?9?9*9?9*9*9?9*_?9?9*9?9*9,26.6,21.8,75,98090,0,1388,414,0,0,0,0,0,0,0,180,1.9,6,6,777.7,77777,9,999999999,0,0.0000,0,0,999.000,0.0,99.0
2014,3,6,23,0,?9?9?9?9E0?9?9?9?9*9?9?9?9?9*9?9*9*9?9*_?9?9*9?9*9,26.0,21.9,78,98090,0,1388,410,0,0,0,0,0,0,0,180,1.9,6,6,777.7,77777,9,999999999,0,0.0000,0,0,999.000,0.0,99.0
2014,3,6,24,0,?9?9?9?9E0?9?9?9?9*9?9?9?9?9*9?9*9*9?9*_?9?9*9?9*9,25.4,21.8,80,98090,0,1388,407,0,0,0,0,0,0,0,180,1.3,6,6,777.7,77777,9,999999999,0,0.0000,0,0,999.000,0.0,99.0
2014,3,7,1,0,?9?9?9?9E0?9?9?9?9*9?9?9?9?9*9?9*9*9?9*_?9?9*9?9*9,25.1,21.8,82,98090,0,1388,405,0,0,0,0,0,0,0,180,1.3,6,6,777.7,77777,9,999999999,0,0.0000,0,0,999.000,0.0,99.0
2014,3,7,2,0,?9?9?9?9E0?9?9?9?9*9?9?9?9?9*9?9*9*9?9*_?9?9*9?9*9,24.8,21.8,83,98090,0,1388,404,0,0,0,0,0,0,0,180,1.3,6,6,777.7,77777,9,999999999,0,0.0000,0,0,999.000,0.0,99.0
2014,3,7,3,0,?9?9?9?9E0?9?9?9?9*9?9?9?9?9*9?9*9*9?9*_?9?9*9?9*9,24.5,21.8,85,98090,0,1388,402,0,0,0,0,0,0,0,180,1.3,6,6,777.7,77777,9,999999999,0,0.0000,0,0,999.000,0.0,99.0
2014,3,7,4,0,?9?9?9?9E0?9?9?9?9*9?9?9?9?9*9?9*9*9?9*_?9?9*9?9*9,24.2,21.8,86,98090,0,1388,400,0,0,0,0,0,0,0,180,1.3,6,6,777.7,77777,9,999999999,0,0.0000,0,0,999.000,0.0,99.0
2014,3,7,5,0,?9?9?9?9E0?9?9?9?9*9?9?9?9?9*9?9*9*9?9*_?9?9*9?9*9,23.9,21.9,88,98090,0,1388,399,0,0,0,0,0,0,0,180,1.3,6,6,777.7,77777,9,999999999,0,0.0000,0,0,999.000,0.0,99.0
2014,3,7,6,0,?9?9?9?9E0?9?9?9?9*9?9?9?9?9*9?9*9*9?9*_?9?9*9?9*9,23.6,21.9,89,98090,0,1388,398,0,0,0,0,0,0,0,180,1.3,6,6,777.7,77777,9,999999999,0,0.0000,0,0,999.000,0.0,99.0
2014,3,7,7,0,?9?9?9?9E0?9?9?9?9*9?9?9?9?9*9?9*9*9?9*_?9?9*9?9*9,23.4,21.9,90,98090,228,1388,397,4,0,4,499,0,458,8,180,1.3,6,6,777.7,77777,9,999999999,0,0.0000,0,0,999.000,0.0,99.0
2014,3,7,8,0,?9?9?9?9E0?9?9?9?9*9?9?9?9?9*9?9*9*9?9*_?9?9*9?9*9,23.2,21.9,92,98090,550,1388,396,182,63,158,21887,5975,17325,127,180,1.3,6,6,777.7,77777,9,999999999,0,0.0000,0,0,999.000,0.0,99.0
2014,3,7,9,0,?9?9?9?9E0?9?9?9?9*9?9?9?9?9*9?9*9*9?9*_?9?9*9?9*9,26.1,21.8,76,98090,839,1388,404,421,231,281,50518,21960,30941,148,180,1.4,4,4,777.7,77777,9,999999999,0,0.0000,0,0,999.000,0.0,99.0
2014,3,7,10,0,?9?9?9?9E0?9?9?9?9*9?9?9?9?9*9?9*9*9?9*_?9?9*9?9*9,27.2,21.7,71,98090,1074,1388,398,648,408,333,77814,38742,36608,137,180,2.4,1,1,777.7,77777,9,999999999,0,0.0000,0,0,999.000,0.0,99.0
2014,3,7,11,0,?9?9?9?9E0?9?9?9?9*9?9?9?9?9*9?9*9*9?9*_?9?9*9?9*9,28.2,21.7,68,98090,1240,1388,403,799,492,359,95831,46748,39493,128,180,3.1,1,1,777.7,77777,9,999999999,0,0.0000,0,0,999.000,0.0,99.0
2014,3,7,12,0,?9?9?9?9E0?9?9?9?9*9?9?9?9?9*9?9*9*9?9*_?9?9*9?9*9,29.0,21.7,64,98090,1324,1388,399,928,573,382,111367,54432,41966,127,180,3.2,0,0,777.7,77777,9,999999999,0,0.0000,0,0,999.000,0.0,99.0
2014,3,7,13,0,?9?9?9?9E0?9?9?9?9*9?9?9?9?9*9?9*9*9?9*_?9?9*9?9*9,29.5,21.6,62,98090,1321,1388,402,956,678,311,114726,64394,34201,104,180,4.2,0,0,777.7,77777,9,999999999,0,0.0000,0,0,999.000,0.0,99.0
2014,3,7,14,0,?9?9?9?9E0?9?9?9?9*9?9?9?9?9*9?9*9*9?9*_?9?9*9?9*9,29.9,21.6,61,98090,1231,1388,404,914,813,193,109698,77224,21242,69,180,4.2,0,0,777.7,77777,9,999999999,0,0.0000,0,0,999.000,0.0,99.0
2014,3,7,15,0,?9?9?9?9E0?9?9?9?9*9?9?9?9?9*9?9*9*9?9*_?9?9*9?9*9,30.0,21.6,60,98090,1060,1388,418,763,809,145,91567,76860,15940,60,180,4.0,2,2,777.7,77777,9,999999999,0,0.0000,0,0,999.000,0.0,99.0
2014,3,7,16,0,?9?9?9?9E0?9?9?9?9*9?9?9?9?9*9?9*9*9?9*_?9?9*9?9*9,29.8,21.6,61,98090,821,1388,421,593,864,82,71172,82086,9046,44,180,3.9,3,3,777.7,77777,9,999999999,0,0.0000,0,0,999.000,0.0,99.0
2014,3,7,17,0,?9?9?9?9E0?9?9?9?9*9?9?9?9?9*9?9*9*9?9*_?9?9*9?9*9,29.3,21.7,63,98090,529,1388,425,378,720,104,45326,68373,11436,87,180,3.5,5,5,777.7,77777,9,999999999,0,0.0000,0,0,999.000,0.0,99.0
2014,3,7,18,0,?9?9?9?9E0?9?9?9?9*9?9?9?9?9*9?9*9*9?9*_?9?9*9?9*9,28.5,21.7,66,98090,205,1388,429,151,304,107,18145,28855,11762,233,180,2.9,7,7,777.7,77777,9,999999999,0,0.0000,0,0,999.000,0.0,99.0
2014,3,7,19,0,?9?9?9?9E0?9?9?9?9*9?9?9?9?9*9?9*9*9?9*_?9?9*9?9*9,27.9,21.7,68,98090,0,1388,426,1,0,0,164,0,0,0,180,2.0,7,7,777.7,77777,9,999999999,0,0.0000,0,0,999.000,0.0,99.0
2014,3,7,20,0,?9?9?9?9E0?9?9?9?9*9?9?9?9?9*9?9*9*9?9*_?9?9*9?9*9,27.4,21.7,71,98090,0,1388,418,0,0,0,0,0,0,0,180,1.3,6,6,777.7,77777,9,999999999,0,0.0000,0,0,999.000,0.0,99.0
2014,3,7,21,0,?9?9?9?9E0?9?9?9?9*9?9?9?9?9*9?9*9*9?9*_?9?9*9?9*9,26.8,21.8,74,98090,0,1388,415,0,0,0,0,0,0,0,180,1.3,6,6,777.7,77777,9,999999999,0,0.0000,0,0,999.000,0.0,99.0
2014,3,7,22,0,?9?9?9?9E0?9?9?9?9*9?9?9?9?9*9?9*9*9?9*_?9?9*9?9*9,26.2,21.8,76,98090,0,1388,411,0,0,0,0,0,0,0,180,1.3,6,6,777.7,77777,9,999999999,0,0.0000,0,0,999.000,0.0,99.0
2014,3,7,23,0,?9?9?9?9E0?9?9?9?9*9?9?9?9?9*9?9*9*9?9*_?9?9*9?9*9,25.6,21.8,79,98090,0,1388,405,0,0,0,0,0,0,0,180,1.3,5,5,777.7,77777,9,999999999,0,0.0000,0,0,999.000,0.0,99.0
2014,3,7,24,0,?9?9?9?9E0?9?9?9?9*9?9?9?9?9*9?9*9*9?9*_?9?9*9?9*9,25.0,21.7,81,98090,0,1388,401,0,0,0,0,0,0,0,180,1.4,5,5,777.7,77777,9,999999999,0,0.0000,0,0,999.000,0.0,99.0
2014,3,8,1,0,?9?9?9?9E0?9?9?9?9*9?9?9?9?9*9?9*9*9?9*_?9?9*9?9*9,24.7,21.6,82,98090,0,1388,397,0,0,0,0,0,0,0,180,1.4,4,4,777.7,77777,9,999999999,0,0.0000,0,0,999.000,0.0,99.0
2014,3,8,2,0,?9?9?9?9E0?9?9?9?9*9?9?9?9?9*9?9*9*9?9*_?9?9*9?9*9,24.4,21.6,84,98090,0,1388,395,0,0,0,0,0,0,0,180,1.4,4,4,777.7,77777,9,999999999,0,0.0000,0,0,999.000,0.0,99.0
2014,3,8,3,0,?9?9?9?9E0?9?9?9?9*9?9?9?9?9*9?9*9*9?9*_?9?9*9?9*9,24.1,21.5,85,98090,0,1388,393,0,0,0,0,0,0,0,180,1.4,4,4,777.7,77777,9,999999999,0,0.0000,0,0,999.000,0.0,99.0
2014,3,8,4,0,?9?9?9?9E0?9?9?9?9*9?9?9?9?9*9?9*9*9?9*_?9?9*9?9*9,23.8,21.5,86,98090,0,1387,389,0,0,0,0,0,0,0,180,1.4,3,3,777.7,77777,9,999999999,0,0.0000,0,0,999.000,0.0,99.0
2014,3,8,5,0,?9?9?9?9E0?9?9?9?9*9?9?9?9?9*9?9*9*9?9*_?9?9*9?9*9,23.5,21.5,88,98090,0,1387,387,0,0,0,0,0,0,0,180,1.4,3,3,777.7,77777,9,999999999,0,0.0000,0,0,999.000,0.0,99.0
2014,3,8,6,0,?9?9?9?9E0?9?9?9?9*9?9?9?9?9*9?9*9*9?9*_?9?9*9?9*9,23.3,21.5,89,98090,0,1387,386,0,0,0,0,0,0,0,180,1.4,3,3,777.7,77777,9,999999999,0,0.0000,0,0,999.000,0.0,99.0
2014,3,8,7,0,?9?9?9?9E0?9?9?9?9*9?9?9?9?9*9?9*9*9?9*_?9?9*9?9*9,23.1,21.4,90,98090,226,1387,381,17,0,17,2038,0,1868,34,180,1.4,2,2,777.7,77777,9,999999999,0,0.0000,0,0,999.000,0.0,99.0
2014,3,8,8,0,?9?9?9?9E0?9?9?9?9*9?9?9?9?9*9?9*9*9?9*_?9?9*9?9*9,22.9,21.4,91,98090,548,1387,380,235,187,161,28214,17804,17733,130,180,1.4,2,2,777.7,77777,9,999999999,0,0.0000,0,0,999.000,0.0,99.0
2014,3,8,9,0,?9?9?9?9E0?9?9?9?9*9?9?9?9?9*9?9*9*9?9*_?9?9*9?9*9,26.4,21.9,75,98090,837,1387,386,527,543,199,63210,51623,21900,105,180,1.4,0,0,777.7,77777,9,999999999,0,0.0000,0,0,999.000,0.0,99.0
2014,3,8,10,0,?9?9?9?9E0?9?9?9?9*9?9?9?9?9*9?9*9*9?9*_?9?9*9?9*9,27.2,21.9,73,98090,1072,1387,403,634,383,338,76025,36398,37129,139,180,1.4,2,2,777.7,77777,9,999999999,0,0.0000,0,0,999.000,0.0,99.0
2014,3,8,11,0,?9?9?9?9E0?9?9?9?9*9?9?9?9?9*9?9*9*9?9*_?9?9*9?9*9,27.7,22.0,71,98090,1237,1387,413,695,295,432,83416,28062,47491,154,180,1.7,4,4,777.7,77777,9,999999999,0,0.0000,0,0,999.000,0.0,99.0
2014,3,8,12,0,?9?9?9?9E0?9?9?9?9*9?9?9?9?9*9?9*9*9?9*_?9?9*9?9*9,28.1,22.0,69,98090,1321,1387,419,713,238,487,85614,22610,53554,163,180,2.8,5,5,777.7,77777,9,999999999,0,0.0000,0,0,999.000,0.0,99.0
2014,3,8,13,0,?9?9?9?9E0?9?9?9?9*9?9?9?9?9*9?9*9*9?9*_?9?9*9?9*9,28.6,22.1,67,98090,1317,1387,406,917,589,357,109981,55955,39284,120,180,3.5,1,1,777.7,77777,9,999999999,0,0.0000,0,0,999.000,0.0,99.0
2014,3,8,14,0,?9?9?9?9E0?9?9?9?9*9?9?9?9?9*9?9*9*9?9*_?9?9*9?9*9,28.8,22.1,67,98090,1227,1387,423,758,425,381,90904,40404,41941,137,180,3.8,5,5,777.7,77777,9,999999999,0,0.0000,0,0,999.000,0.0,99.0
2014,3,8,15,0,?9?9?9?9E0?9?9?9?9*9?9?9?9?9*9?9*9*9?9*_?9?9*9?9*9,28.7,22.1,67,98090,1056,1387,426,604,340,345,72443,32327,37906,144,180,4.6,6,6,777.7,77777,9,999999999,0,0.0000,0,0,999.000,0.0,99.0
2014,3,8,16,0,?9?9?9?9E0?9?9?9?9*9?9?9?9?9*9?9*9*9?9*_?9?9*9?9*9,28.5,22.1,68,98090,816,1387,424,477,449,213,57216,42639,23401,115,180,4.6,6,6,777.7,77777,9,999999999,0,0.0000,0,0,999.000,0.0,99.0
2014,3,8,17,0,?9?9?9?9E0?9?9?9?9*9?9?9?9?9*9?9*9*9?9*_?9?9*9?9*9,27.9,22.0,70,98090,524,1387,426,291,506,100,34922,48080,11013,84,180,3.9,7,7,777.7,77777,9,999999999,0,0.0000,0,0,999.000,0.0,99.0
2014,3,8,18,0,?9?9?9?9E0?9?9?9?9*9?9?9?9?9*9?9*9*9?9*_?9?9*9?9*9,27.2,22.0,77,98090,200,1387,429,91,303,47,10865,28770,5215,106,180,2.9,8,8,777.7,77777,9,999999999,0,0.0000,0,0,999.000,0.0,99.0
2014,3,8,19,0,?9?9?9?9E0?9?9?9?9*9?9?9?9?9*9?9*9*9?9*_?9?9*9?9*9,26.7,21.9,74,98090,0,1387,426,1,0,0,104,0,0,0,180,2.1,8,8,777.7,77777,9,999999999,0,0.0000,0,0,999.000,0.0,99.0
2014,3,8,20,0,?9?9?9?9E0?9?9?9?9*9?9?9?9?9*9?9*9*9?9*_?9?9*9?9*9,26.2,21.8,81,98090,0,1387,423,0,0,0,0,0,0,0,180,1.4,8,8,777.7,77777,9,999999999,0,0.0000,0,0,999.000,0.0,99.0
2014,3,8,21,0,?9?9?9?9E0?9?9?9?9*9?9?9?9?9*9?9*9*9?9*_?9?9*9?9*9,25.8,21.8,83,98090,0,1387,420,0,0,0,0,0,0,0,180,1.4,8,8,777.7,77777,9,999999999,0,0.0000,0,0,999.000,0.0,99.0
2014,3,8,22,0,?9?9?9?9E0?9?9?9?9*9?9?9?9?9*9?9*9*9?9*_?9?9*9?9*9,25.2,21.7,85,98090,0,1387,417,0,0,0,0,0,0,0,180,1.4,8,8,777.7,77777,9,999999999,0,0.0000,0,0,999.000,0.0,99.0
2014,3,8,23,0,?9?9?9?9E0?9?9?9?9*9?9?9?9?9*9?9*9*9?9*_?9?9*9?9*9,24.8,21.6,87,98090,0,1387,415,0,0,0,0,0,0,0,180,1.4,8,8,777.7,77777,9,999999999,0,0.0000,0,0,999.000,0.9,99.0
2014,3,8,24,0,?9?9?9?9E0?9?9?9?9*9?9?9?9?9*9?9*9*9?9*_?9?9*9?9*9,24.2,21.4,84,98090,0,1387,412,0,0,0,0,0,0,0,180,1.3,8,8,777.7,77777,9,999999999,0,0.0000,0,0,999.000,0.0,99.0
2014,3,9,1,0,?9?9?9?9E0?9?9?9?9*9?9?9?9?9*9?9*9*9?9*_?9?9*9?9*9,24.0,21.3,85,98090,0,1387,410,0,0,0,0,0,0,0,180,1.3,8,8,777.7,77777,9,999999999,0,0.0000,0,0,999.000,0.0,99.0
2014,3,9,2,0,?9?9?9?9E0?9?9?9?9*9?9?9?9?9*9?9*9*9?9*_?9?9*9?9*9,23.8,21.3,86,98090,0,1387,409,0,0,0,0,0,0,0,180,1.3,8,8,777.7,77777,9,999999999,0,0.0000,0,0,999.000,0.0,99.0
2014,3,9,3,0,?9?9?9?9E0?9?9?9?9*9?9?9?9?9*9?9*9*9?9*_?9?9*9?9*9,23.5,21.3,87,98090,0,1387,407,0,0,0,0,0,0,0,180,1.3,8,8,777.7,77777,9,999999999,0,0.0000,0,0,999.000,0.0,99.0
2014,3,9,4,0,?9?9?9?9E0?9?9?9?9*9?9?9?9?9*9?9*9*9?9*_?9?9*9?9*9,23.3,21.2,88,98090,0,1386,406,0,0,0,0,0,0,0,180,1.3,8,8,777.7,77777,9,999999999,0,0.0000,0,0,999.000,0.0,99.0
2014,3,9,5,0,?9?9?9?9E0?9?9?9?9*9?9?9?9?9*9?9*9*9?9*_?9?9*9?9*9,23.0,21.2,89,98090,0,1386,404,0,0,0,0,0,0,0,180,1.3,8,8,777.7,77777,9,999999999,0,0.0000,0,0,999.000,0.0,99.0
2014,3,9,6,0,?9?9?9?9E0?9?9?9?9*9?9?9?9?9*9?9*9*9?9*_?9?9*9?9*9,22.8,21.2,90,98090,0,1386,403,0,0,0,0,0,0,0,180,1.3,8,8,777.7,77777,9,999999999,0,0.0000,0,0,999.000,0.0,99.0
2014,3,9,7,0,?9?9?9?9E0?9?9?9?9*9?9?9?9?9*9?9*9*9?9*_?9?9*9?9*9,22.6,21.1,91,98090,224,1386,402,3,0,3,391,0,359,7,180,1.3,8,8,777.7,77777,9,999999999,0,0.0000,0,0,999.000,0.0,99.0
2014,3,9,8,0,?9?9?9?9E0?9?9?9?9*9?9?9?9?9*9?9*9*9?9*_?9?9*9?9*9,22.5,21.1,92,98090,546,1386,402,137,5,135,16382,430,14822,109,180,1.3,8,8,777.7,77777,9,999999999,0,0.0000,0,0,999.000,0.0,99.0
2014,3,9,9,0,?9?9?9?9E0?9?9?9?9*9?9?9?9?9*9?9*9*9?9*_?9?9*9?9*9,24.8,21.5,81,98090,834,1386,403,363,133,283,43598,12660,31146,150,180,1.8,6,6,777.7,77777,9,999999999,0,0.0000,0,0,999.000,0.0,99.0
2014,3,9,10,0,?9?9?9?9E0?9?9?9?9*9?9?9?9?9*9?9*9*9?9*_?9?9*9?9*9,25.8,21.6,77,98090,1069,1386,402,567,271,358,67999,25765,39327,148,180,2.6,4,4,777.7,77777,9,999999999,0,0.0000,0,0,999.000,0.0,99.0
2014,3,9,11,0,?9?9?9?9E0?9?9?9?9*9?9?9?9?9*9?9*9*9?9*_?9?9*9?9*9,26.6,21.7,74,98090,1234,1386,404,734,355,418,88075,33685,46020,150,180,3.2,3,3,777.7,77777,9,999999999,0,0.0000,0,0,999.000,0.0,99.0
2014,3,9,12,0,?9?9?9?9E0?9?9?9?9*9?9?9?9?9*9?9*9*9?9*_?9?9*9?9*9,27.4,21.8,71,98090,1317,1386,391,892,559,360,107017,53130,39641,121,180,3.7,0,0,777.7,77777,9,999999999,0,0.0000,0,0,999.000,0.0,99.0
2014,3,9,13,0,?9?9?9?9E0?9?9?9?9*9?9?9?9?9*9?9*9*9?9*_?9?9*9?9*9,27.9,21.9,69,98090,1314,1386,411,852,532,348,102253,50555,38261,117,180,3.8,3,3,777.7,77777,9,999999999,0,0.0000,0,0,999.000,0.0,99.0
2014,3,9,14,0,?9?9?9?9E0?9?9?9?9*9?9?9?9?9*9?9*9*9?9*_?9?9*9?9*9,28.2,21.9,68,98090,1223,1386,413,811,550,326,97370,52232,35897,118,180,4.4,3,3,777.7,77777,9,999999999,0,0.0000,0,0,999.000,0.0,99.0
2014,3,9,15,0,?9?9?9?9E0?9?9?9?9*9?9?9?9?9*9?9*9*9?9*_?9?9*9?9*9,28.3,21.9,68,98090,1052,1386,417,716,643,228,85900,61111,25054,96,180,4.0,4,4,777.7,77777,9,999999999,0,0.0000,0,0,999.000,0.0,99.0
2014,3,9,16,0,?9?9?9?9E0?9?9?9?9*9?9?9?9?9*9?9*9*9?9*_?9?9*9?9*9,28.2,21.9,68,98090,812,1386,416,564,745,128,67620,70739,14040,69,180,4.0,4,4,777.7,77777,9,999999999,0,0.0000,0,0,999.000,0.0,99.0
2014,3,9,17,0,?9?9?9?9E0?9?9?9?9*9?9?9?9?9*9?9*9*9?9*_?9?9*9?9*9,27.8,21.9,70,98090,519,1386,417,377,724,106,45192,68767,11648,90,180,3.5,5,5,777.7,77777,9,999999999,0,0.0000,0,0,999.000,0.0,99.0
2014,3,9,18,0,?9?9?9?9E0?9?9?9?9*9?9?9?9?9*9?9*9*9?9*_?9?9*9?9*9,27.2,21.8,72,98090,195,1386,422,154,297,113,18502,28212,12419,259,180,2.4,7,7,777.7,77777,9,999999999,0,0.0000,0,0,999.000,0.0,99.0
2014,3,9,19,0,?9?9?9?9E0?9?9?9?9*9?9?9?9?9*9?9*9*9?9*_?9?9*9?9*9,26.6,21.7,74,98090,0,1386,419,2,0,0,280,0,0,0,180,1.8,7,7,777.7,77777,9,999999999,0,0.0000,0,0,999.000,0.0,99.0
2014,3,9,20,0,?9?9?9?9E0?9?9?9?9*9?9?9?9?9*9?9*9*9?9*_?9?9*9?9*9,26.1,21.6,76,98090,0,1386,416,0,0,0,0,0,0,0,180,1.3,7,7,777.7,77777,9,999999999,0,0.0000,0,0,999.000,0.0,99.0
2014,3,9,21,0,?9?9?9?9E0?9?9?9?9*9?9?9?9?9*9?9*9*9?9*_?9?9*9?9*9,25.6,21.6,78,98090,0,1386,413,0,0,0,0,0,0,0,180,1.3,7,7,777.7,77777,9,999999999,0,0.0000,0,0,999.000,0.0,99.0
2014,3,9,22,0,?9?9?9?9E0?9?9?9?9*9?9?9?9?9*9?9*9*9?9*_?9?9*9?9*9,25.1,21.5,80,98090,0,1386,410,0,0,0,0,0,0,0,180,1.3,7,7,777.7,77777,9,999999999,0,0.0000,0,0,999.000,0.0,99.0
2014,3,9,23,0,?9?9?9?9E0?9?9?9?9*9?9?9?9?9*9?9*9*9?9*_?9?9*9?9*9,24.6,21.4,82,98090,0,1386,407,0,0,0,0,0,0,0,180,1.3,7,7,777.7,77777,9,999999999,0,0.0000,0,0,999.000,0.0,99.0
2014,3,9,24,0,?9?9?9?9E0?9?9?9?9*9?9?9?9?9*9?9*9*9?9*_?9?9*9?9*9,24.0,21.4,86,98090,0,1386,404,0,0,0,0,0,0,0,180,1.2,7,7,777.7,77777,9,999999999,0,0.0000,0,0,999.000,0.0,99.0
2014,3,10,1,0,?9?9?9?9E0?9?9?9?9*9?9?9?9?9*9?9*9*9?9*_?9?9*9?9*9,23.8,21.4,87,98090,0,1386,403,0,0,0,0,0,0,0,180,1.2,7,7,777.7,77777,9,999999999,0,0.0000,0,0,999.000,0.1,99.0
2014,3,10,2,0,?9?9?9?9E0?9?9?9?9*9?9?9?9?9*9?9*9*9?9*_?9?9*9?9*9,23.5,21.3,92,98090,0,1386,401,0,0,0,0,0,0,0,180,1.2,7,7,777.7,77777,9,999999999,2,0.0000,0,0,999.000,2.7,99.0
2014,3,10,3,0,?9?9?9?9E0?9?9?9?9*9?9?9?9?9*9?9*9*9?9*_?9?9*9?9*9,23.3,21.3,85,98090,0,1386,400,0,0,0,0,0,0,0,180,1.2,7,7,777.7,77777,9,999999999,0,0.0000,0,0,999.000,0.0,99.0
2014,3,10,4,0,?9?9?9?9E0?9?9?9?9*9?9?9?9?9*9?9*9*9?9*_?9?9*9?9*9,23.0,21.3,90,98090,0,1385,398,0,0,0,0,0,0,0,180,1.2,7,7,777.7,77777,9,999999999,0,0.0000,0,0,999.000,0.0,99.0
2014,3,10,5,0,?9?9?9?9E0?9?9?9?9*9?9?9?9?9*9?9*9*9?9*_?9?9*9?9*9,22.7,21.3,87,98090,0,1385,397,0,0,0,0,0,0,0,180,1.2,7,7,777.7,77777,9,999999999,0,0.0000,0,0,999.000,0.0,99.0
2014,3,10,6,0,?9?9?9?9E0?9?9?9?9*9?9?9?9?9*9?9*9*9?9*_?9?9*9?9*9,22.5,21.2,88,98090,0,1385,396,0,0,0,0,0,0,0,180,1.2,7,7,777.7,77777,9,999999999,0,0.0000,0,0,999.000,0.0,99.0
2014,3,10,7,0,?9?9?9?9E0?9?9?9?9*9?9?9?9?9*9?9*9*9?9*_?9?9*9?9*9,22.4,21.2,89,98090,222,1385,395,3,0,3,378,0,347,6,180,1.2,7,7,777.7,77777,9,999999999,0,0.0000,0,0,999.000,0.0,99.0
2014,3,10,8,0,?9?9?9?9E0?9?9?9?9*9?9?9?9?9*9?9*9*9?9*_?9?9*9?9*9,22.2,21.2,94,98090,544,1385,394,161,32,148,19312,3059,16315,121,180,1.2,7,7,777.7,77777,9,999999999,0,0.0000,0,0,999.000,0.0,99.0
2014,3,10,9,0,?9?9?9?9E0?9?9?9?9*9?9?9?9?9*9?9*9*9?9*_?9?9*9?9*9,25.0,21.5,78,98090,832,1385,405,369,144,283,44324,13698,31110,150,180,1.2,6,6,777.7,77777,9,999999999,0,0.0000,0,0,999.000,0.0,99.0
2014,3,10,10,0,?9?9?9?9E0?9?9?9?9*9?9?9?9?9*9?9*9*9?9*_?9?9*9?9*9,26.1,21.6,74,98090,1067,1385,404,570,280,354,68377,26593,38979,147,180,1.7,4,4,777.7,77777,9,999999999,0,0.0000,0,0,999.000,0.0,99.0
2014,3,10,11,0,?9?9?9?9E0?9?9?9?9*9?9?9?9?9*9?9*9*9?9*_?9?9*9?9*9,27.0,21.7,71,98090,1231,1385,409,698,307,426,83816,29167,46828,153,180,2.6,4,4,777.7,77777,9,999999999,0,0.0000,0,0,999.000,0.0,99.0
2014,3,10,12,0,?9?9?9?9E0?9?9?9?9*9?9?9?9?9*9?9*9*9?9*_?9?9*9?9*9,27.5,21.7,70,98090,1314,1385,419,691,244,460,82969,23184,50597,154,180,3.5,6,6,777.7,77777,9,999999999,0,0.0000,0,0,999.000,0.0,99.0
2014,3,10,13,0,?9?9?9?9E0?9?9?9?9*9?9?9?9?9*9?9*9*9?9*_?9?9*9?9*9,28.0,21.8,68,98090,1310,1385,415,791,371,440,94966,35263,48448,148,180,3.9,4,4,777.7,77777,9,999999999,0,0.0000,0,0,999.000,0.0,99.0
2014,3,10,14,0,?9?9?9?9E0?9?9?9?9*9?9?9?9?9*9?9*9*9?9*_?9?9*9?9*9,28.5,21.8,67,98090,1219,1385,410,855,567,356,102562,53851,39154,129,180,5.0,2,2,777.7,77777,9,999999999,0,0.0000,0,0,999.000,0.0,99.0
2014,3,10,15,0,?9?9?9?9E0?9?9?9?9*9?9?9?9?9*9?9*9*9?9*_?9?9*9?9*9,28.8,21.9,66,98090,1048,1385,406,775,802,169,93035,76146,18629,71,180,4.9,1,1,777.7,77777,9,999999999,0,0.0000,0,0,999.000,0.0,99.0
2014,3,10,16,0,?9?9?9?9E0?9?9?9?9*9?9?9?9?9*9?9*9*9?9*_?9?9*9?9*9,28.8,21.9,66,98090,807,1385,399,649,783,193,77890,74370,21254,106,180,4.5,0,0,777.7,77777,9,999999999,0,0.0000,0,0,999.000,0.0,99.0
2014,3,10,17,0,?9?9?9?9E0?9?9?9?9*9?9?9?9?9*9?9*9*9?9*_?9?9*9?9*9,28.5,21.8,67,98090,515,1385,404,436,734,164,52364,69697,18084,141,180,3.6,1,1,777.7,77777,9,999999999,0,0.0000,0,0,999.000,0.0,99.0
2014,3,10,18,0,?9?9?9?9E0?9?9?9?9*9?9?9?9?9*9?9*9*9?9*_?9?9*9?9*9,27.8,21.8,69,98090,190,1385,420,178,427,120,21373,40557,13227,282,180,2.5,6,6,777.7,77777,9,999999999,0,0.0000,0,0,999.000,0.0,99.0
2014,3,10,19,0,?9?9?9?9E0?9?9?9?9*9?9?9?9?9*9?9*9*9?9*_?9?9*9?9*9,27.2,21.7,70,98090,0,1385,417,1,0,0,61,0,0,0,180,1.9,6,6,777.7,77777,9,999999999,0,0.0000,0,0,999.000,0.0,99.0
2014,3,10,20,0,?9?9?9?9E0?9?9?9?9*9?9?9?9?9*9?9*9*9?9*_?9?9*9?9*9,26.7,21.7,72,98090,0,1385,414,0,0,0,0,0,0,0,180,1.2,6,6,777.7,77777,9,999999999,0,0.0000,0,0,999.000,0.0,99.0
2014,3,10,21,0,?9?9?9?9E0?9?9?9?9*9?9?9?9?9*9?9*9*9?9*_?9?9*9?9*9,26.2,21.6,74,98090,0,1385,411,0,0,0,0,0,0,0,180,1.2,6,6,777.7,77777,9,999999999,0,0.0000,0,0,999.000,0.0,99.0
2014,3,10,22,0,?9?9?9?9E0?9?9?9?9*9?9?9?9?9*9?9*9*9?9*_?9?9*9?9*9,25.7,21.6,80,98090,0,1385,413,0,0,0,0,0,0,0,180,1.2,7,7,777.7,77777,9,999999999,0,0.0000,0,0,999.000,0.0,99.0
2014,3,10,23,0,?9?9?9?9E0?9?9?9?9*9?9?9?9?9*9?9*9*9?9*_?9?9*9?9*9,25.2,21.5,82,98090,0,1385,410,0,0,0,0,0,0,0,180,1.2,7,7,777.7,77777,9,999999999,0,0.0000,0,0,999.000,0.1,99.0
2014,3,10,24,0,?9?9?9?9E0?9?9?9?9*9?9?9?9?9*9?9*9*9?9*_?9?9*9?9*9,24.6,21.8,85,98090,0,1385,408,0,0,0,0,0,0,0,180,1.0,7,7,777.7,77777,9,999999999,0,0.0000,0,0,999.000,0.0,99.0
2014,3,11,1,0,?9?9?9?9E0?9?9?9?9*9?9?9?9?9*9?9*9*9?9*_?9?9*9?9*9,24.4,21.8,82,98090,0,1385,406,0,0,0,0,0,0,0,180,1.0,7,7,777.7,77777,9,999999999,0,0.0000,0,0,999.000,0.0,99.0
2014,3,11,2,0,?9?9?9?9E0?9?9?9?9*9?9?9?9?9*9?9*9*9?9*_?9?9*9?9*9,24.1,21.7,83,98090,0,1385,405,0,0,0,0,0,0,0,180,1.0,7,7,777.7,77777,9,999999999,0,0.0000,0,0,999.000,0.0,99.0
2014,3,11,3,0,?9?9?9?9E0?9?9?9?9*9?9?9?9?9*9?9*9*9?9*_?9?9*9?9*9,23.9,21.7,84,98090,0,1385,403,0,0,0,0,0,0,0,180,1.0,7,7,777.7,77777,9,999999999,0,0.0000,0,0,999.000,0.0,99.0
2014,3,11,4,0,?9?9?9?9E0?9?9?9?9*9?9?9?9?9*9?9*9*9?9*_?9?9*9?9*9,23.6,21.7,89,98090,0,1385,402,0,0,0,0,0,0,0,180,1.0,7,7,777.7,77777,9,999999999,0,0.0000,0,0,999.000,0.0,99.0
2014,3,11,5,0,?9?9?9?9E0?9?9?9?9*9?9?9?9?9*9?9*9*9?9*_?9?9*9?9*9,23.3,21.7,90,98090,0,1385,407,0,0,0,0,0,0,0,180,1.0,8,8,777.7,77777,9,999999999,0,0.0000,0,0,999.000,0.2,99.0
2014,3,11,6,0,?9?9?9?9E0?9?9?9?9*9?9?9?9?9*9?9*9*9?9*_?9?9*9?9*9,23.1,21.6,91,98090,0,1385,406,0,0,0,0,0,0,0,180,1.0,8,8,777.7,77777,9,999999999,0,0.0000,0,0,999.000,0.0,99.0
2014,3,11,7,0,?9?9?9?9E0?9?9?9?9*9?9?9?9?9*9?9*9*9?9*_?9?9*9?9*9,23.0,21.6,92,98090,220,1385,405,2,0,2,277,0,254,5,180,1.0,8,8,777.7,77777,9,999999999,0,0.0000,0,0,999.000,0.2,99.0
2014,3,11,8,0,?9?9?9?9E0?9?9?9?9*9?9?9?9?9*9?9*9*9?9*_?9?9*9?9*9,22.8,21.6,93,98090,541,1385,404,139,8,136,16734,769,14992,111,180,1.0,8,8,777.7,77777,9,999999999,0,0.0000,0,0,999.000,0.1,99.0
2014,3,11,9,0,?9?9?9?9E0?9?9?9?9*9?9?9?9?9*9?9*9*9?9*_?9?9*9?9*9,25.2,21.8,79,98090,830,1385,411,320,81,271,38365,7656,29860,144,180,1.0,7,7,777.7,77777,9,999999999,0,0.0000,0,0,999.000,0.0,99.0
2014,3,11,10,0,?9?9?9?9E0?9?9?9?9*9?9?9?9?9*9?9*9*9?9*_?9?9*9?9*9,26.0,21.9,76,98090,1064,1385,411,480,144,369,57618,13711,40621,153,180,1.3,6,6,777.7,77777,9,999999999,0,0.0000,0,0,999.000,0.0,99.0
2014,3,11,11,0,?9?9?9?9E0?9?9?9?9*9?9?9?9?9*9?9*9*9?9*_?9?9*9?9*9,26.8,22.0,74,98090,1228,1385,415,604,128,490,72461,12149,53949,176,180,1.9,6,6,777.7,77777,9,999999999,0,0.0000,0,0,999.000,0.0,99.0
2014,3,11,12,0,?9?9?9?9E0?9?9?9?9*9?9?9?9?9*9?9*9*9?9*_?9?9*9?9*9,27.4,22.0,72,98090,1311,1385,419,681,124,564,81695,11752,62008,190,180,2.3,6,6,777.7,77777,9,999999999,0,0.0000,0,0,999.000,0.0,99.0
2014,3,11,13,0,?9?9?9?9E0?9?9?9?9*9?9?9?9?9*9?9*9*9?9*_?9?9*9?9*9,27.9,22.1,70,98090,1306,1385,421,705,145,569,84626,13744,62564,192,180,3.2,6,6,777.7,77777,9,999999999,0,0.0000,0,0,999.000,0.0,99.0
2014,3,11,14,0,?9?9?9?9E0?9?9?9?9*9?9?9?9?9*9?9*9*9?9*_?9?9*9?9*9,28.1,22.1,69,98090,1215,1385,423,675,286,424,81041,27187,46670,154,180,3.7,6,6,777.7,77777,9,999999999,0,0.0000,0,0,999.000,0.0,99.0
2014,3,11,15,0,?9?9?9?9E0?9?9?9?9*9?9?9?9?9*9?9*9*9?9*_?9?9*9?9*9,28.2,22.1,69,98090,1043,1385,423,593,346,333,71198,32855,36613,141,180,4.6,6,6,777.7,77777,9,999999999,0,0.0000,0,0,999.000,0.0,99.0
2014,3,11,16,0,?9?9?9?9E0?9?9?9?9*9?9?9?9?9*9?9*9*9?9*_?9?9*9?9*9,28.1,22.1,69,98090,803,1385,423,465,429,217,55842,40765,23847,119,180,4.3,6,6,777.7,77777,9,999999999,0,0.0000,0,0,999.000,0.0,99.0
2014,3,11,17,0,?9?9?9?9E0?9?9?9?9*9?9?9?9?9*9?9*9*9?9*_?9?9*9?9*9,27.7,22.1,71,98090,510,1385,425,302,497,119,36226,47237,13112,103,180,4.5,7,7,777.7,77777,9,999999999,0,0.0000,0,0,999.000,0.0,99.0
2014,3,11,18,0,?9?9?9?9E0?9?9?9?9*9?9?9?9?9*9?9*9*9?9*_?9?9*9?9*9,27.1,22.0,72,98090,186,1385,429,121,244,89,14537,23197,9778,214,180,4.4,8,8,777.7,77777,9,999999999,0,0.0000,0,0,999.000,0.0,99.0
2014,3,11,19,0,?9?9?9?9E0?9?9?9?9*9?9?9?9?9*9?9*9*9?9*_?9?9*9?9*9,26.6,22.0,78,98090,0,1385,426,0,0,0,32,0,0,0,180,3.4,8,8,777.7,77777,9,999999999,0,0.0000,0,0,999.000,0.0,99.0
2014,3,11,20,0,?9?9?9?9E0?9?9?9?9*9?9?9?9?9*9?9*9*9?9*_?9?9*9?9*9,26.2,21.9,80,98090,0,1385,423,0,0,0,0,0,0,0,180,3.0,8,8,777.7,77777,9,999999999,0,0.0000,0,0,999.000,0.1,99.0
2014,3,11,21,0,?9?9?9?9E0?9?9?9?9*9?9?9?9?9*9?9*9*9?9*_?9?9*9?9*9,25.7,21.9,81,98090,0,1385,420,0,0,0,0,0,0,0,180,2.0,8,8,777.7,77777,9,999999999,0,0.0000,0,0,999.000,0.7,99.0
2014,3,11,22,0,?9?9?9?9E0?9?9?9?9*9?9?9?9?9*9?9*9*9?9*_?9?9*9?9*9,25.2,21.8,91,98090,0,1385,417,0,0,0,0,0,0,0,180,1.6,8,8,777.7,77777,9,999999999,10,0.0000,0,0,999.000,10.4,99.0
2014,3,11,23,0,?9?9?9?9E0?9?9?9?9*9?9?9?9?9*9?9*9*9?9*_?9?9*9?9*9,24.7,21.8,85,98090,0,1385,415,0,0,0,0,0,0,0,180,1.4,8,8,777.7,77777,9,999999999,0,0.0000,0,0,999.000,0.3,99.0
2014,3,11,24,0,?9?9?9?9E0?9?9?9?9*9?9?9?9?9*9?9*9*9?9*_?9?9*9?9*9,24.2,21.5,82,98090,0,1385,411,0,0,0,0,0,0,0,180,2.5,8,8,777.7,77777,9,999999999,0,0.0000,0,0,999.000,0.7,99.0
2014,3,12,1,0,?9?9?9?9E0?9?9?9?9*9?9?9?9?9*9?9*9*9?9*_?9?9*9?9*9,24.0,21.5,83,98090,0,1385,410,0,0,0,0,0,0,0,180,2.7,8,8,777.7,77777,9,999999999,0,0.0000,0,0,999.000,0.0,99.0
2014,3,12,2,0,?9?9?9?9E0?9?9?9?9*9?9?9?9?9*9?9*9*9?9*_?9?9*9?9*9,23.7,21.5,84,98090,0,1385,409,0,0,0,0,0,0,0,180,1.8,8,8,777.7,77777,9,999999999,0,0.0000,0,0,999.000,0.2,99.0
2014,3,12,3,0,?9?9?9?9E0?9?9?9?9*9?9?9?9?9*9?9*9*9?9*_?9?9*9?9*9,23.5,21.5,85,98090,0,1385,407,0,0,0,0,0,0,0,180,1.8,8,8,777.7,77777,9,999999999,0,0.0000,0,0,999.000,0.5,99.0
2014,3,12,4,0,?9?9?9?9E0?9?9?9?9*9?9?9?9?9*9?9*9*9?9*_?9?9*9?9*9,23.2,21.5,94,98090,0,1384,406,0,0,0,0,0,0,0,180,1.8,8,8,777.7,77777,9,999999999,17,0.0000,0,0,999.000,17.4,99.0
2014,3,12,5,0,?9?9?9?9E0?9?9?9?9*9?9?9?9?9*9?9*9*9?9*_?9?9*9?9*9,23.0,21.5,87,98090,0,1384,405,0,0,0,0,0,0,0,180,1.8,8,8,777.7,77777,9,999999999,0,0.0000,0,0,999.000,0.2,99.0
2014,3,12,6,0,?9?9?9?9E0?9?9?9?9*9?9?9?9?9*9?9*9*9?9*_?9?9*9?9*9,22.8,21.5,84,98090,0,1384,404,0,0,0,0,0,0,0,180,1.8,8,8,777.7,77777,9,999999999,0,0.0000,0,0,999.000,0.0,99.0
2014,3,12,7,0,?9?9?9?9E0?9?9?9?9*9?9?9?9?9*9?9*9*9?9*_?9?9*9?9*9,22.6,21.5,89,98090,218,1384,403,2,0,2,256,0,234,4,180,1.8,8,8,777.7,77777,9,999999999,0,0.0000,0,0,999.000,0.1,99.0
2014,3,12,8,0,?9?9?9?9E0?9?9?9?9*9?9?9?9?9*9?9*9*9?9*_?9?9*9?9*9,22.5,21.5,86,98090,539,1384,402,139,8,136,16621,730,14907,111,180,1.8,8,8,777.7,77777,9,999999999,0,0.0000,0,0,999.000,0.0,99.0
2014,3,12,9,0,?9?9?9?9E0?9?9?9?9*9?9?9?9?9*9?9*9*9?9*_?9?9*9?9*9,25.3,21.5,75,98090,827,1384,411,319,80,271,38228,7643,29755,144,180,1.8,7,7,777.7,77777,9,999999999,0,0.0000,0,0,999.000,0.0,99.0
2014,3,12,10,0,?9?9?9?9E0?9?9?9?9*9?9?9?9?9*9?9*9*9?9*_?9?9*9?9*9,26.3,21.5,71,98090,1061,1384,412,479,144,368,57455,13711,40496,153,180,1.9,6,6,777.7,77777,9,999999999,0,0.0000,0,0,999.000,0.0,99.0
2014,3,12,11,0,?9?9?9?9E0?9?9?9?9*9?9?9?9?9*9?9*9*9?9*_?9?9*9?9*9,27.2,21.5,68,98090,1225,1384,417,602,128,489,72268,12154,53790,176,180,3.6,6,6,777.7,77777,9,999999999,0,0.0000,0,0,999.000,0.0,99.0
2014,3,12,12,0,?9?9?9?9E0?9?9?9?9*9?9?9?9?9*9?9*9*9?9*_?9?9*9?9*9,28.0,21.5,66,98090,1307,1384,421,679,124,562,81469,11761,61819,189,180,5.0,6,6,777.7,77777,9,999999999,0,0.0000,0,0,999.000,0.0,99.0
2014,3,12,13,0,?9?9?9?9E0?9?9?9?9*9?9?9?9?9*9?9*9*9?9*_?9?9*9?9*9,28.5,21.4,65,98090,1302,1384,424,703,145,567,84372,13760,62349,192,180,5.3,6,6,777.7,77777,9,999999999,0,0.0000,0,0,999.000,0.0,99.0
2014,3,12,14,0,?9?9?9?9E0?9?9?9?9*9?9?9?9?9*9?9*9*9?9*_?9?9*9?9*9,28.8,21.4,64,98090,1211,1384,426,673,287,422,80759,27232,46446,154,180,5.7,6,6,777.7,77777,9,999999999,0,0.0000,0,0,999.000,0.0,99.0
2014,3,12,15,0,?9?9?9?9E0?9?9?9?9*9?9?9?9?9*9?9*9*9?9*_?9?9*9?9*9,28.9,21.4,64,98090,1039,1384,426,591,347,331,70895,32936,36373,140,180,5.8,6,6,777.7,77777,9,999999999,0,0.0000,0,0,999.000,0.0,99.0
2014,3,12,16,0,?9?9?9?9E0?9?9?9?9*9?9?9?9?9*9?9*9*9?9*_?9?9*9?9*9,28.8,21.4,64,98090,798,1384,425,463,431,215,55524,40913,23605,119,180,6.4,6,6,777.7,77777,9,999999999,0,0.0000,0,0,999.000,0.0,99.0
2014,3,12,17,0,?9?9?9?9E0?9?9?9?9*9?9?9?9?9*9?9*9*9?9*_?9?9*9?9*9,28.3,21.4,69,98090,505,1384,428,299,500,117,35903,47489,12894,102,180,5.9,7,7,777.7,77777,9,999999999,0,0.0000,0,0,999.000,0.0,99.0
2014,3,12,18,0,?9?9?9?9E0?9?9?9?9*9?9?9?9?9*9?9*9*9?9*_?9?9*9?9*9,27.6,21.5,71,98090,181,1384,431,119,240,88,14239,22822,9656,217,180,4.7,8,8,777.7,77777,9,999999999,0,0.0000,0,0,999.000,0.0,99.0
2014,3,12,19,0,?9?9?9?9E0?9?9?9?9*9?9?9?9?9*9?9*9*9?9*_?9?9*9?9*9,27.1,21.5,76,98090,0,1384,428,0,0,0,22,0,0,0,180,2.7,8,8,777.7,77777,9,999999999,1,0.0000,0,0,999.000,1.3,99.0
2014,3,12,20,0,?9?9?9?9E0?9?9?9?9*9?9?9?9?9*9?9*9*9?9*_?9?9*9?9*9,26.6,21.5,74,98090,0,1384,425,0,0,0,0,0,0,0,180,1.9,8,8,777.7,77777,9,999999999,0,0.0000,0,0,999.000,0.1,99.0
2014,3,12,21,0,?9?9?9?9E0?9?9?9?9*9?9?9?9?9*9?9*9*9?9*_?9?9*9?9*9,26.1,21.5,76,98090,0,1384,422,0,0,0,0,0,0,0,180,1.8,8,8,777.7,77777,9,999999999,0,0.0000,0,0,999.000,0.3,99.0
2014,3,12,22,0,?9?9?9?9E0?9?9?9?9*9?9?9?9?9*9?9*9*9?9*_?9?9*9?9*9,25.5,21.5,78,98090,0,1384,412,0,0,0,0,0,0,0,180,1.8,7,7,777.7,77777,9,999999999,0,0.0000,0,0,999.000,0.0,99.0
2014,3,12,23,0,?9?9?9?9E0?9?9?9?9*9?9?9?9?9*9?9*9*9?9*_?9?9*9?9*9,25.0,21.5,79,98090,0,1384,409,0,0,0,0,0,0,0,180,1.8,7,7,777.7,77777,9,999999999,0,0.0000,0,0,999.000,0.1,99.0
2014,3,12,24,0,?9?9?9?9E0?9?9?9?9*9?9?9?9?9*9?9*9*9?9*_?9?9*9?9*9,24.5,21.0,80,98090,0,1384,406,0,0,0,0,0,0,0,180,1.1,7,7,777.7,77777,9,999999999,0,0.0000,0,0,999.000,0.0,99.0
2014,3,13,1,0,?9?9?9?9E0?9?9?9?9*9?9?9?9?9*9?9*9*9?9*_?9?9*9?9*9,24.3,21.0,82,98090,0,1384,405,0,0,0,0,0,0,0,180,1.1,7,7,777.7,77777,9,999999999,0,0.0000,0,0,999.000,0.0,99.0
2014,3,13,2,0,?9?9?9?9E0?9?9?9?9*9?9?9?9?9*9?9*9*9?9*_?9?9*9?9*9,24.0,21.0,83,98090,0,1384,403,0,0,0,0,0,0,0,180,1.1,7,7,777.7,77777,9,999999999,0,0.0000,0,0,999.000,0.0,99.0
2014,3,13,3,0,?9?9?9?9E0?9?9?9?9*9?9?9?9?9*9?9*9*9?9*_?9?9*9?9*9,23.7,21.0,84,98090,0,1384,402,0,0,0,0,0,0,0,180,1.1,7,7,777.7,77777,9,999999999,0,0.0000,0,0,999.000,0.0,99.0
2014,3,13,4,0,?9?9?9?9E0?9?9?9?9*9?9?9?9?9*9?9*9*9?9*_?9?9*9?9*9,23.5,21.1,86,98090,0,1383,401,0,0,0,0,0,0,0,180,1.1,7,7,777.7,77777,9,999999999,0,0.0000,0,0,999.000,0.0,99.0
2014,3,13,5,0,?9?9?9?9E0?9?9?9?9*9?9?9?9?9*9?9*9*9?9*_?9?9*9?9*9,23.2,21.1,87,98090,0,1383,395,0,0,0,0,0,0,0,180,1.1,6,6,777.7,77777,9,999999999,0,0.0000,0,0,999.000,0.0,99.0
2014,3,13,6,0,?9?9?9?9E0?9?9?9?9*9?9?9?9?9*9?9*9*9?9*_?9?9*9?9*9,23.0,21.1,89,98090,0,1383,393,0,0,0,0,0,0,0,180,1.1,6,6,777.7,77777,9,999999999,0,0.0000,0,0,999.000,0.0,99.0
2014,3,13,7,0,?9?9?9?9E0?9?9?9?9*9?9?9?9?9*9?9*9*9?9*_?9?9*9?9*9,22.9,21.1,90,98090,216,1383,393,3,0,3,362,0,332,6,180,1.1,6,6,777.7,77777,9,999999999,0,0.0000,0,0,999.000,0.0,99.0
2014,3,13,8,0,?9?9?9?9E0?9?9?9?9*9?9?9?9?9*9?9*9*9?9*_?9?9*9?9*9,22.7,21.1,91,98090,537,1383,392,187,76,158,22421,7177,17331,129,180,1.1,6,6,777.7,77777,9,999999999,0,0.0000,0,0,999.000,0.0,99.0
2014,3,13,9,0,?9?9?9?9E0?9?9?9?9*9?9?9?9?9*9?9*9*9?9*_?9?9*9?9*9,25.7,20.9,74,98090,825,1383,398,426,260,271,51142,24676,29850,145,180,1.5,3,3,777.7,77777,9,999999999,0,0.0000,0,0,999.000,0.0,99.0
2014,3,13,10,0,?9?9?9?9E0?9?9?9?9*9?9?9?9?9*9?9*9*9?9*_?9?9*9?9*9,26.8,20.8,69,98090,1058,1383,394,637,402,330,76487,38193,36280,137,180,2.4,1,1,777.7,77777,9,999999999,0,0.0000,0,0,999.000,0.0,99.0
2014,3,13,11,0,?9?9?9?9E0?9?9?9?9*9?9?9?9?9*9?9*9*9?9*_?9?9*9?9*9,27.8,20.7,65,98090,1222,1383,392,794,506,348,95330,48045,38252,125,180,3.2,0,0,777.7,77777,9,999999999,0,0.0000,0,0,999.000,0.0,99.0
2014,3,13,12,0,?9?9?9?9E0?9?9?9?9*9?9?9?9?9*9?9*9*9?9*_?9?9*9?9*9,28.6,20.6,62,98090,1304,1383,396,907,629,314,108804,59775,34508,106,180,4.0,0,0,777.7,77777,9,999999999,0,0.0000,0,0,999.000,0.0,99.0
2014,3,13,13,0,?9?9?9?9E0?9?9?9?9*9?9?9?9?9*9?9*9*9?9*_?9?9*9?9*9,29.1,20.6,60,98090,1298,1383,399,921,629,330,110540,59792,36343,112,180,4.1,0,0,777.7,77777,9,999999999,0,0.0000,0,0,999.000,0.0,99.0
2014,3,13,14,0,?9?9?9?9E0?9?9?9?9*9?9?9?9?9*9?9*9*9?9*_?9?9*9?9*9,29.4,20.5,58,98090,1206,1383,400,882,722,252,105802,68569,27741,92,180,4.1,0,0,777.7,77777,9,999999999,0,0.0000,0,0,999.000,0.0,99.0
2014,3,13,15,0,?9?9?9?9E0?9?9?9?9*9?9?9?9?9*9?9*9*9?9*_?9?9*9?9*9,29.6,20.5,58,98090,1034,1383,401,786,904,110,94264,85845,12118,47,180,4.6,0,0,777.7,77777,9,999999999,0,0.0000,0,0,999.000,0.0,99.0
2014,3,13,16,0,?9?9?9?9E0?9?9?9?9*9?9?9?9?9*9?9*9*9?9*_?9?9*9?9*9,29.5,20.5,58,98090,793,1383,400,629,807,167,75532,76632,18400,93,180,4.3,0,0,777.7,77777,9,999999999,0,0.0000,0,0,999.000,0.0,99.0
2014,3,13,17,0,?9?9?9?9E0?9?9?9?9*9?9?9?9?9*9?9*9*9?9*_?9?9*9?9*9,29.0,20.6,60,98090,500,1383,415,410,728,148,49201,69133,16233,130,180,3.5,3,3,777.7,77777,9,999999999,0,0.0000,0,0,999.000,0.0,99.0
2014,3,13,18,0,?9?9?9?9E0?9?9?9?9*9?9?9?9?9*9?9*9*9?9*_?9?9*9?9*9,28.2,20.6,63,98090,176,1383,421,160,374,113,19165,35546,12424,288,180,3.1,6,6,777.7,77777,9,999999999,0,0.0000,0,0,999.000,0.0,99.0
2014,3,13,19,0,?9?9?9?9E0?9?9?9?9*9?9?9?9?9*9?9*9*9?9*_?9?9*9?9*9,27.5,20.7,66,98090,0,1383,417,0,0,0,29,0,0,0,180,1.9,6,6,777.7,77777,9,999999999,0,0.0000,0,0,999.000,0.0,99.0
2014,3,13,20,0,?9?9?9?9E0?9?9?9?9*9?9?9?9?9*9?9*9*9?9*_?9?9*9?9*9,26.7,20.8,69,98090,0,1383,413,0,0,0,0,0,0,0,180,1.5,6,6,777.7,77777,9,999999999,0,0.0000,0,0,999.000,0.0,99.0
2014,3,13,21,0,?9?9?9?9E0?9?9?9?9*9?9?9?9?9*9?9*9*9?9*_?9?9*9?9*9,26.0,20.9,73,98090,0,1383,409,0,0,0,0,0,0,0,180,1.1,6,6,777.7,77777,9,999999999,0,0.0000,0,0,999.000,0.0,99.0
2014,3,13,22,0,?9?9?9?9E0?9?9?9?9*9?9?9?9?9*9?9*9*9?9*_?9?9*9?9*9,25.2,20.9,76,98090,0,1383,410,0,0,0,0,0,0,0,180,1.1,7,7,777.7,77777,9,999999999,0,0.0000,0,0,999.000,0.0,99.0
2014,3,13,23,0,?9?9?9?9E0?9?9?9?9*9?9?9?9?9*9?9*9*9?9*_?9?9*9?9*9,24.5,21.0,80,98090,0,1383,406,0,0,0,0,0,0,0,180,1.2,7,7,777.7,77777,9,999999999,0,0.0000,0,0,999.000,0.0,99.0
2014,3,13,24,0,?9?9?9?9E0?9?9?9?9*9?9?9?9?9*9?9*9*9?9*_?9?9*9?9*9,23.8,20.5,83,98090,0,1383,401,0,0,0,0,0,0,0,180,1.2,7,7,777.7,77777,9,999999999,0,0.0000,0,0,999.000,0.1,99.0
2014,3,14,1,0,?9?9?9?9E0?9?9?9?9*9?9?9?9?9*9?9*9*9?9*_?9?9*9?9*9,23.4,20.5,85,98090,0,1383,399,0,0,0,0,0,0,0,180,1.3,7,7,777.7,77777,9,999999999,0,0.0000,0,0,999.000,0.1,99.0
2014,3,14,2,0,?9?9?9?9E0?9?9?9?9*9?9?9?9?9*9?9*9*9?9*_?9?9*9?9*9,23.0,20.4,82,98090,0,1383,397,0,0,0,0,0,0,0,180,1.1,7,7,777.7,77777,9,999999999,0,0.0000,0,0,999.000,0.0,99.0
2014,3,14,3,0,?9?9?9?9E0?9?9?9?9*9?9?9?9?9*9?9*9*9?9*_?9?9*9?9*9,22.7,20.4,84,98090,0,1383,395,0,0,0,0,0,0,0,180,1.1,7,7,777.7,77777,9,999999999,0,0.0000,0,0,999.000,0.0,99.0
2014,3,14,4,0,?9?9?9?9E0?9?9?9?9*9?9?9?9?9*9?9*9*9?9*_?9?9*9?9*9,22.3,20.4,85,98090,0,1382,393,0,0,0,0,0,0,0,180,1.1,7,7,777.7,77777,9,999999999,0,0.0000,0,0,999.000,0.0,99.0
2014,3,14,5,0,?9?9?9?9E0?9?9?9?9*9?9?9?9?9*9?9*9*9?9*_?9?9*9?9*9,21.9,20.4,91,98090,0,1382,397,0,0,0,0,0,0,0,180,1.1,8,8,777.7,77777,9,999999999,0,0.0000,0,0,999.000,0.0,99.0
2014,3,14,6,0,?9?9?9?9E0?9?9?9?9*9?9?9?9?9*9?9*9*9?9*_?9?9*9?9*9,21.6,20.3,92,98090,0,1382,396,0,0,0,0,0,0,0,180,1.1,8,8,777.7,77777,9,999999999,0,0.0000,0,0,999.000,0.1,99.0
2014,3,14,7,0,?9?9?9?9E0?9?9?9?9*9?9?9?9?9*9?9*9*9?9*_?9?9*9?9*9,21.4,20.3,93,98090,214,1382,395,2,0,2,214,0,196,4,180,1.1,8,8,777.7,77777,9,999999999,0,0.0000,0,0,999.000,0.0,99.0
2014,3,14,8,0,?9?9?9?9E0?9?9?9?9*9?9?9?9?9*9?9*9*9?9*_?9?9*9?9*9,21.1,20.3,95,98090,535,1382,393,135,6,133,16229,527,14640,110,180,1.1,8,8,777.7,77777,9,999999999,0,0.0000,0,0,999.000,0.2,99.0
2014,3,14,9,0,?9?9?9?9E0?9?9?9?9*9?9?9?9?9*9?9*9*9?9*_?9?9*9?9*9,24.1,20.5,82,98090,822,1382,403,313,77,267,37562,7290,29413,143,180,1.3,7,7,777.7,77777,9,999999999,0,0.0000,0,0,999.000,0.0,99.0
2014,3,14,10,0,?9?9?9?9E0?9?9?9?9*9?9?9?9?9*9?9*9*9?9*_?9?9*9?9*9,25.2,20.6,74,98090,1056,1382,405,471,101,394,56534,9608,43330,164,180,1.8,6,6,777.7,77777,9,999999999,0,0.0000,0,0,999.000,0.0,99.0
2014,3,14,11,0,?9?9?9?9E0?9?9?9?9*9?9?9?9?9*9?9*9*9?9*_?9?9*9?9*9,26.1,20.7,70,98090,1219,1382,410,593,123,484,71132,11673,53291,175,180,2.8,6,6,777.7,77777,9,999999999,0,0.0000,0,0,999.000,0.0,99.0
2014,3,14,12,0,?9?9?9?9E0?9?9?9?9*9?9?9?9?9*9?9*9*9?9*_?9?9*9?9*9,26.9,20.7,68,98090,1300,1382,414,668,119,556,80177,11305,61186,188,180,3.8,6,6,777.7,77777,9,999999999,0,0.0000,0,0,999.000,0.0,99.0
2014,3,14,13,0,?9?9?9?9E0?9?9?9?9*9?9?9?9?9*9?9*9*9?9*_?9?9*9?9*9,27.5,20.8,66,98090,1294,1382,417,692,139,561,82986,13241,61716,191,180,4.3,6,6,777.7,77777,9,999999999,0,0.0000,0,0,999.000,0.0,99.0
2014,3,14,14,0,?9?9?9?9E0?9?9?9?9*9?9?9?9?9*9?9*9*9?9*_?9?9*9?9*9,27.8,20.8,65,98090,1202,1382,419,661,202,486,79356,19191,53423,178,180,5.1,6,6,777.7,77777,9,999999999,0,0.0000,0,0,999.000,0.0,99.0
2014,3,14,15,0,?9?9?9?9E0?9?9?9?9*9?9?9?9?9*9?9*9*9?9*_?9?9*9?9*9,28.0,20.8,65,98090,1029,1382,420,580,335,330,69551,31856,36296,141,180,5.9,6,6,777.7,77777,9,999999999,0,0.0000,0,0,999.000,0.0,99.0
2014,3,14,16,0,?9?9?9?9E0?9?9?9?9*9?9?9?9?9*9?9*9*9?9*_?9?9*9?9*9,27.8,20.8,65,98090,788,1382,419,453,434,205,54310,41244,22577,115,180,6.4,6,6,777.7,77777,9,999999999,0,0.0000,0,0,999.000,0.0,99.0
2014,3,14,17,0,?9?9?9?9E0?9?9?9?9*9?9?9?9?9*9?9*9*9?9*_?9?9*9?9*9,27.3,20.8,67,98090,495,1382,421,291,490,116,34885,46542,12729,103,180,5.2,7,7,777.7,77777,9,999999999,0,0.0000,0,0,999.000,0.0,99.0
2014,3,14,18,0,?9?9?9?9E0?9?9?9?9*9?9?9?9?9*9?9*9*9?9*_?9?9*9?9*9,26.5,20.7,73,98090,171,1382,423,112,234,84,13498,22183,9255,221,180,3.7,8,8,777.7,77777,9,999999999,0,0.0000,0,0,999.000,0.3,99.0
2014,3,14,19,0,?9?9?9?9E0?9?9?9?9*9?9?9?9?9*9?9*9*9?9*_?9?9*9?9*9,25.9,20.6,76,98090,0,1382,420,0,0,0,0,0,0,0,180,2.9,8,8,777.7,77777,9,999999999,0,0.0000,0,0,999.000,0.9,99.0
2014,3,14,20,0,?9?9?9?9E0?9?9?9?9*9?9?9?9?9*9?9*9*9?9*_?9?9*9?9*9,25.2,20.6,86,98090,0,1382,416,0,0,0,0,0,0,0,180,1.8,8,8,777.7,77777,9,999999999,13,0.0000,0,0,999.000,13.4,99.0
2014,3,14,21,0,?9?9?9?9E0?9?9?9?9*9?9?9?9?9*9?9*9*9?9*_?9?9*9?9*9,24.6,20.5,80,98090,0,1382,412,0,0,0,0,0,0,0,180,1.1,8,8,777.7,77777,9,999999999,0,0.0000,0,0,999.000,0.5,99.0
2014,3,14,22,0,?9?9?9?9E0?9?9?9?9*9?9?9?9?9*9?9*9*9?9*_?9?9*9?9*9,23.9,20.5,83,98090,0,1382,409,0,0,0,0,0,0,0,180,1.1,8,8,777.7,77777,9,999999999,0,0.0000,0,0,999.000,0.2,99.0
2014,3,14,23,0,?9?9?9?9E0?9?9?9?9*9?9?9?9?9*9?9*9*9?9*_?9?9*9?9*9,23.3,20.5,85,98090,0,1382,405,0,0,0,0,0,0,0,180,1.1,8,8,777.7,77777,9,999999999,0,0.0000,0,0,999.000,0.0,99.0
2014,3,14,24,0,?9?9?9?9E0?9?9?9?9*9?9?9?9?9*9?9*9*9?9*_?9?9*9?9*9,22.6,18.6,80,98090,0,1382,399,0,0,0,0,0,0,0,180,1.2,8,8,777.7,77777,9,999999999,0,0.0000,0,0,999.000,0.3,99.0
2014,3,15,1,0,?9?9?9?9E0?9?9?9?9*9?9?9?9?9*9?9*9*9?9*_?9?9*9?9*9,22.3,18.6,82,98090,0,1382,397,0,0,0,0,0,0,0,180,1.2,8,8,777.7,77777,9,999999999,0,0.0000,0,0,999.000,0.2,99.0
2014,3,15,2,0,?9?9?9?9E0?9?9?9?9*9?9?9?9?9*9?9*9*9?9*_?9?9*9?9*9,22.0,18.6,83,98090,0,1382,396,0,0,0,0,0,0,0,180,1.2,8,8,777.7,77777,9,999999999,0,0.0000,0,0,999.000,0.6,99.0
2014,3,15,3,0,?9?9?9?9E0?9?9?9?9*9?9?9?9?9*9?9*9*9?9*_?9?9*9?9*9,21.6,18.7,85,98090,0,1382,394,0,0,0,0,0,0,0,180,1.2,8,8,777.7,77777,9,999999999,0,0.0000,0,0,999.000,0.1,99.0
2014,3,15,4,0,?9?9?9?9E0?9?9?9?9*9?9?9?9?9*9?9*9*9?9*_?9?9*9?9*9,21.3,18.7,86,98090,0,1382,392,0,0,0,0,0,0,0,180,1.2,8,8,777.7,77777,9,999999999,0,0.0000,0,0,999.000,0.0,99.0
2014,3,15,5,0,?9?9?9?9E0?9?9?9?9*9?9?9?9?9*9?9*9*9?9*_?9?9*9?9*9,21.0,18.7,88,98090,0,1382,390,0,0,0,0,0,0,0,180,1.2,8,8,777.7,77777,9,999999999,0,0.0000,0,0,999.000,0.0,99.0
2014,3,15,6,0,?9?9?9?9E0?9?9?9?9*9?9?9?9?9*9?9*9*9?9*_?9?9*9?9*9,20.7,18.7,85,98090,0,1382,389,0,0,0,0,0,0,0,180,1.2,8,8,777.7,77777,9,999999999,0,0.0000,0,0,999.000,0.0,99.0
2014,3,15,7,0,?9?9?9?9E0?9?9?9?9*9?9?9?9?9*9?9*9*9?9*_?9?9*9?9*9,20.5,18.8,91,98090,212,1382,388,2,0,2,221,0,202,4,180,1.2,8,8,777.7,77777,9,999999999,0,0.0000,0,0,999.000,0.0,99.0
2014,3,15,8,0,?9?9?9?9E0?9?9?9?9*9?9?9?9?9*9?9*9*9?9*_?9?9*9?9*9,20.3,18.8,87,98090,533,1382,387,150,22,142,18010,2106,15570,117,180,1.2,8,8,777.7,77777,9,999999999,0,0.0000,0,0,999.000,0.0,99.0
2014,3,15,9,0,?9?9?9?9E0?9?9?9?9*9?9?9?9?9*9?9*9*9?9*_?9?9*9?9*9,23.3,18.6,73,98090,820,1382,392,348,122,276,41816,11566,30389,148,180,1.3,6,6,777.7,77777,9,999999999,0,0.0000,0,0,999.000,0.0,99.0
2014,3,15,10,0,?9?9?9?9E0?9?9?9?9*9?9?9?9?9*9?9*9*9?9*_?9?9*9?9*9,24.4,18.5,68,98090,1053,1382,394,525,157,405,62980,14934,44557,169,180,1.9,5,5,777.7,77777,9,999999999,0,0.0000,0,0,999.000,0.0,99.0
2014,3,15,11,0,?9?9?9?9E0?9?9?9?9*9?9?9?9?9*9?9*9*9?9*_?9?9*9?9*9,25.4,18.4,64,98090,1215,1382,399,660,191,493,79254,18120,54195,178,180,2.8,5,5,777.7,77777,9,999999999,0,0.0000,0,0,999.000,0.0,99.0
2014,3,15,12,0,?9?9?9?9E0?9?9?9?9*9?9?9?9?9*9?9*9*9?9*_?9?9*9?9*9,26.1,18.4,61,98090,1296,1382,403,744,331,434,89321,31455,47705,147,180,3.4,5,5,777.7,77777,9,999999999,0,0.0000,0,0,999.000,0.0,99.0
2014,3,15,13,0,?9?9?9?9E0?9?9?9?9*9?9?9?9?9*9?9*9*9?9*_?9?9*9?9*9,26.7,18.3,59,98090,1290,1382,406,770,386,410,92426,36666,45076,140,180,3.9,5,5,777.7,77777,9,999999999,0,0.0000,0,0,999.000,0.0,99.0
2014,3,15,14,0,?9?9?9?9E0?9?9?9?9*9?9?9?9?9*9?9*9*9?9*_?9?9*9?9*9,27.1,18.3,58,98090,1198,1382,408,736,435,359,88338,41321,39507,132,180,4.4,5,5,777.7,77777,9,999999999,0,0.0000,0,0,999.000,0.0,99.0
2014,3,15,15,0,?9?9?9?9E0?9?9?9?9*9?9?9?9?9*9?9*9*9?9*_?9?9*9?9*9,27.2,18.3,58,98090,1025,1382,409,645,527,254,77358,50072,27925,109,180,4.3,5,5,777.7,77777,9,999999999,0,0.0000,0,0,999.000,0.0,99.0
2014,3,15,16,0,?9?9?9?9E0?9?9?9?9*9?9?9?9?9*9?9*9*9?9*_?9?9*9?9*9,27.0,18.3,58,98090,783,1382,408,503,660,129,60314,62743,14137,72,180,3.9,5,5,777.7,77777,9,999999999,0,0.0000,0,0,999.000,0.0,99.0
2014,3,15,17,0,?9?9?9?9E0?9?9?9?9*9?9?9?9?9*9?9*9*9?9*_?9?9*9?9*9,26.5,18.3,60,98090,490,1382,409,322,570,120,38610,54187,13199,108,180,4.0,6,6,777.7,77777,9,999999999,0,0.0000,0,0,999.000,0.0,99.0
2014,3,15,18,0,?9?9?9?9E0?9?9?9?9*9?9?9?9?9*9?9*9*9?9*_?9?9*9?9*9,25.8,18.4,67,98090,166,1382,416,123,275,91,14744,26091,9957,245,180,2.8,8,8,777.7,77777,9,999999999,0,0.0000,0,0,999.000,0.1,99.0
2014,3,15,19,0,?9?9?9?9E0?9?9?9?9*9?9?9?9?9*9?9*9*9?9*_?9?9*9?9*9,25.1,18.4,70,98090,0,1382,413,0,0,0,0,0,0,0,180,2.4,8,8,777.7,77777,9,999999999,0,0.0000,0,0,999.000,0.4,99.0
2014,3,15,20,0,?9?9?9?9E0?9?9?9?9*9?9?9?9?9*9?9*9*9?9*_?9?9*9?9*9,24.5,18.5,77,98090,0,1382,409,0,0,0,0,0,0,0,180,1.4,8,8,777.7,77777,9,999999999,1,0.0000,0,0,999.000,1.1,99.0
2014,3,15,21,0,?9?9?9?9E0?9?9?9?9*9?9?9?9?9*9?9*9*9?9*_?9?9*9?9*9,23.8,18.5,84,98090,0,1382,406,0,0,0,0,0,0,0,180,1.2,8,8,777.7,77777,9,999999999,15,0.0000,0,0,999.000,15.1,99.0
2014,3,15,22,0,?9?9?9?9E0?9?9?9?9*9?9?9?9?9*9?9*9*9?9*_?9?9*9?9*9,23.2,18.6,78,98090,0,1382,396,0,0,0,0,0,0,0,180,1.2,7,7,777.7,77777,9,999999999,0,0.0000,0,0,999.000,0.0,99.0
2014,3,15,23,0,?9?9?9?9E0?9?9?9?9*9?9?9?9?9*9?9*9*9?9*_?9?9*9?9*9,22.5,18.6,80,98090,0,1382,392,0,0,0,0,0,0,0,180,1.2,7,7,777.7,77777,9,999999999,0,0.0000,0,0,999.000,0.1,99.0
2014,3,15,24,0,?9?9?9?9E0?9?9?9?9*9?9?9?9?9*9?9*9*9?9*_?9?9*9?9*9,21.9,15.6,72,98090,0,1382,385,0,0,0,0,0,0,0,180,1.4,7,7,777.7,77777,9,999999999,0,0.0000,0,0,999.000,0.0,99.0
2014,3,16,1,0,?9?9?9?9E0?9?9?9?9*9?9?9?9?9*9?9*9*9?9*_?9?9*9?9*9,21.6,15.8,74,98090,0,1382,384,0,0,0,0,0,0,0,180,1.4,7,7,777.7,77777,9,999999999,0,0.0000,0,0,999.000,0.9,99.0
2014,3,16,2,0,?9?9?9?9E0?9?9?9?9*9?9?9?9?9*9?9*9*9?9*_?9?9*9?9*9,21.3,16.0,77,98090,0,1382,383,0,0,0,0,0,0,0,180,1.4,7,7,777.7,77777,9,999999999,0,0.0000,0,0,999.000,0.0,99.0
2014,3,16,3,0,?9?9?9?9E0?9?9?9?9*9?9?9?9?9*9?9*9*9?9*_?9?9*9?9*9,20.9,16.2,74,98090,0,1382,381,0,0,0,0,0,0,0,180,1.4,7,7,777.7,77777,9,999999999,0,0.0000,0,0,999.000,0.0,99.0
2014,3,16,4,0,?9?9?9?9E0?9?9?9?9*9?9?9?9?9*9?9*9*9?9*_?9?9*9?9*9,20.6,16.4,76,98090,0,1381,380,0,0,0,0,0,0,0,180,1.4,7,7,777.7,77777,9,999999999,0,0.0000,0,0,999.000,0.0,99.0
2014,3,16,5,0,?9?9?9?9E0?9?9?9?9*9?9?9?9?9*9?9*9*9?9*_?9?9*9?9*9,20.3,16.5,79,98090,0,1381,374,0,0,0,0,0,0,0,180,1.4,6,6,777.7,77777,9,999999999,0,0.0000,0,0,999.000,0.0,99.0
2014,3,16,6,0,?9?9?9?9E0?9?9?9?9*9?9?9?9?9*9?9*9*9?9*_?9?9*9?9*9,20.0,16.7,81,98090,0,1381,373,0,0,0,0,0,0,0,180,1.4,6,6,777.7,77777,9,999999999,0,0.0000,0,0,999.000,0.0,99.0
2014,3,16,7,0,?9?9?9?9E0?9?9?9?9*9?9?9?9?9*9?9*9*9?9*_?9?9*9?9*9,19.8,16.8,82,98090,210,1381,372,3,0,3,323,0,296,6,180,1.4,6,6,777.7,77777,9,999999999,0,0.0000,0,0,999.000,0.0,99.0
2014,3,16,8,0,?9?9?9?9E0?9?9?9?9*9?9?9?9?9*9?9*9*9?9*_?9?9*9?9*9,19.6,16.9,84,98090,531,1381,371,182,76,153,21829,7205,16810,127,180,1.4,6,6,777.7,77777,9,999999999,0,0.0000,0,0,999.000,0.0,99.0
2014,3,16,9,0,?9?9?9?9E0?9?9?9?9*9?9?9?9?9*9?9*9*9?9*_?9?9*9?9*9,22.0,15.6,66,98090,817,1381,373,414,224,282,49723,21304,30984,152,180,1.4,3,3,777.7,77777,9,999999999,0,0.0000,0,0,999.000,0.0,99.0
2014,3,16,10,0,?9?9?9?9E0?9?9?9?9*9?9?9?9?9*9?9*9*9?9*_?9?9*9?9*9,23.0,15.0,60,98090,1050,1381,368,637,381,347,76444,36204,38205,145,180,1.7,1,1,777.7,77777,9,999999999,0,0.0000,0,0,999.000,0.0,99.0
2014,3,16,11,0,?9?9?9?9E0?9?9?9?9*9?9?9?9?9*9?9*9*9?9*_?9?9*9?9*9,23.8,14.5,56,98090,1212,1381,364,805,504,363,96601,47876,39896,132,180,2.5,0,0,777.7,77777,9,999999999,0,0.0000,0,0,999.000,0.0,99.0
2014,3,16,12,0,?9?9?9?9E0?9?9?9?9*9?9?9?9?9*9?9*9*9?9*_?9?9*9?9*9,24.4,14.1,52,98090,1293,1381,367,913,576,374,109544,54736,41088,127,180,3.3,0,0,777.7,77777,9,999999999,0,0.0000,0,0,999.000,0.0,99.0
2014,3,16,13,0,?9?9?9?9E0?9?9?9?9*9?9?9?9?9*9?9*9*9?9*_?9?9*9?9*9,24.9,13.8,50,98090,1286,1381,369,938,665,318,112542,63176,35030,109,180,4.2,0,0,777.7,77777,9,999999999,0,0.0000,0,0,999.000,0.0,99.0
2014,3,16,14,0,?9?9?9?9E0?9?9?9?9*9?9?9?9?9*9?9*9*9?9*_?9?9*9?9*9,25.2,13.6,48,98090,1193,1381,370,872,737,236,104669,69999,25920,87,180,4.6,0,0,777.7,77777,9,999999999,0,0.0000,0,0,999.000,0.0,99.0
2014,3,16,15,0,?9?9?9?9E0?9?9?9?9*9?9?9?9?9*9?9*9*9?9*_?9?9*9?9*9,25.3,13.6,48,98090,1020,1381,370,771,870,129,92525,82613,14186,56,180,4.2,0,0,777.7,77777,9,999999999,0,0.0000,0,0,999.000,0.0,99.0
2014,3,16,16,0,?9?9?9?9E0?9?9?9?9*9?9?9?9?9*9?9*9*9?9*_?9?9*9?9*9,25.1,13.6,48,98090,778,1381,382,594,692,204,71256,65771,22433,115,180,4.1,2,2,777.7,77777,9,999999999,0,0.0000,0,0,999.000,0.0,99.0
2014,3,16,17,0,?9?9?9?9E0?9?9?9?9*9?9?9?9?9*9?9*9*9?9*_?9?9*9?9*9,24.7,13.9,51,98090,485,1381,387,385,636,163,46238,60437,17877,148,180,3.4,4,4,777.7,77777,9,999999999,0,0.0000,0,0,999.000,0.0,99.0
2014,3,16,18,0,?9?9?9?9E0?9?9?9?9*9?9?9?9?9*9?9*9*9?9*_?9?9*9?9*9,24.1,14.3,54,98090,161,1381,391,152,354,111,18192,33657,12227,310,180,2.5,6,6,777.7,77777,9,999999999,0,0.0000,0,0,999.000,0.0,99.0
2014,3,16,19,0,?9?9?9?9E0?9?9?9?9*9?9?9?9?9*9?9*9*9?9*_?9?9*9?9*9,23.7,14.5,61,98090,0,1381,389,0,0,0,0,0,0,0,180,1.8,6,6,777.7,77777,9,999999999,0,0.0000,0,0,999.000,0.0,99.0
2014,3,16,20,0,?9?9?9?9E0?9?9?9?9*9?9?9?9?9*9?9*9*9?9*_?9?9*9?9*9,23.4,14.7,58,98090,0,1381,388,0,0,0,0,0,0,0,180,1.4,6,6,777.7,77777,9,999999999,0,0.0000,0,0,999.000,0.0,99.0
2014,3,16,21,0,?9?9?9?9E0?9?9?9?9*9?9?9?9?9*9?9*9*9?9*_?9?9*9?9*9,23.1,14.9,60,98090,0,1381,386,0,0,0,0,0,0,0,180,1.4,6,6,777.7,77777,9,999999999,0,0.0000,0,0,999.000,0.0,99.0
2014,3,16,22,0,?9?9?9?9E0?9?9?9?9*9?9?9?9?9*9?9*9*9?9*_?9?9*9?9*9,22.8,15.1,67,98090,0,1381,389,0,0,0,0,0,0,0,180,1.4,7,7,777.7,77777,9,999999999,0,0.0000,0,0,999.000,0.0,99.0
2014,3,16,23,0,?9?9?9?9E0?9?9?9?9*9?9?9?9?9*9?9*9*9?9*_?9?9*9?9*9,22.4,15.3,64,98090,0,1381,388,0,0,0,0,0,0,0,180,1.4,7,7,777.7,77777,9,999999999,0,0.0000,0,0,999.000,0.0,99.0
2014,3,16,24,0,?9?9?9?9E0?9?9?9?9*9?9?9?9?9*9?9*9*9?9*_?9?9*9?9*9,22.1,18.6,82,98090,0,1381,390,0,0,0,0,0,0,0,180,0.8,7,7,777.7,77777,9,999999999,0,0.0000,0,0,999.000,0.0,99.0
2014,3,17,1,0,?9?9?9?9E0?9?9?9?9*9?9?9?9?9*9?9*9*9?9*_?9?9*9?9*9,21.9,18.6,79,98090,0,1381,389,0,0,0,0,0,0,0,180,0.8,7,7,777.7,77777,9,999999999,0,0.0000,0,0,999.000,0.0,99.0
2014,3,17,2,0,?9?9?9?9E0?9?9?9?9*9?9?9?9?9*9?9*9*9?9*_?9?9*9?9*9,21.8,18.7,84,98090,0,1381,388,0,0,0,0,0,0,0,180,0.8,7,7,777.7,77777,9,999999999,0,0.0000,0,0,999.000,0.0,99.0
2014,3,17,3,0,?9?9?9?9E0?9?9?9?9*9?9?9?9?9*9?9*9*9?9*_?9?9*9?9*9,21.6,18.7,80,98090,0,1381,387,0,0,0,0,0,0,0,180,0.8,7,7,777.7,77777,9,999999999,0,0.0000,0,0,999.000,0.0,99.0
2014,3,17,4,0,?9?9?9?9E0?9?9?9?9*9?9?9?9?9*9?9*9*9?9*_?9?9*9?9*9,21.4,18.7,85,98090,0,1380,387,0,0,0,0,0,0,0,180,0.8,7,7,777.7,77777,9,999999999,0,0.0000,0,0,999.000,0.0,99.0
2014,3,17,5,0,?9?9?9?9E0?9?9?9?9*9?9?9?9?9*9?9*9*9?9*_?9?9*9?9*9,21.3,18.7,86,98090,0,1380,392,0,0,0,0,0,0,0,180,0.8,8,8,777.7,77777,9,999999999,0,0.0000,0,0,999.000,0.1,99.0
2014,3,17,6,0,?9?9?9?9E0?9?9?9?9*9?9?9?9?9*9?9*9*9?9*_?9?9*9?9*9,21.1,18.7,83,98090,0,1380,391,0,0,0,0,0,0,0,180,0.8,8,8,777.7,77777,9,999999999,0,0.0000,0,0,999.000,0.0,99.0
2014,3,17,7,0,?9?9?9?9E0?9?9?9?9*9?9?9?9?9*9?9*9*9?9*_?9?9*9?9*9,21.0,18.7,83,98090,208,1380,391,1,0,1,163,0,150,3,180,0.8,8,8,777.7,77777,9,999999999,0,0.0000,0,0,999.000,0.0,99.0
2014,3,17,8,0,?9?9?9?9E0?9?9?9?9*9?9?9?9?9*9?9*9*9?9*_?9?9*9?9*9,20.9,18.7,84,98090,528,1380,390,131,3,130,15688,262,14264,108,180,1.0,8,8,777.7,77777,9,999999999,0,0.0000,0,0,999.000,0.0,99.0
2014,3,17,9,0,?9?9?9?9E0?9?9?9?9*9?9?9?9?9*9?9*9*9?9*_?9?9*9?9*9,22.9,18.6,75,98090,815,1380,395,306,58,271,36660,5534,29823,146,180,1.8,7,7,777.7,77777,9,999999999,0,0.0000,0,0,999.000,0.0,99.0
2014,3,17,10,0,?9?9?9?9E0?9?9?9?9*9?9?9?9?9*9?9*9*9?9*_?9?9*9?9*9,23.7,18.6,72,98090,1047,1380,399,461,96,388,55294,9114,42681,163,180,2.7,7,7,777.7,77777,9,999999999,0,0.0000,0,0,999.000,0.0,99.0
2014,3,17,11,0,?9?9?9?9E0?9?9?9?9*9?9?9?9?9*9?9*9*9?9*_?9?9*9?9*9,24.4,18.6,69,98090,1209,1380,397,580,117,478,69602,11095,52551,174,180,3.2,6,6,777.7,77777,9,999999999,0,0.0000,0,0,999.000,0.0,99.0
2014,3,17,12,0,?9?9?9?9E0?9?9?9?9*9?9?9?9?9*9?9*9*9?9*_?9?9*9?9*9,24.9,18.5,67,98090,1289,1380,400,654,113,548,78428,10758,60260,187,180,4.1,6,6,777.7,77777,9,999999999,0,0.0000,0,0,999.000,0.0,99.0
2014,3,17,13,0,?9?9?9?9E0?9?9?9?9*9?9?9?9?9*9?9*9*9?9*_?9?9*9?9*9,25.3,18.5,66,98090,1282,1380,402,676,133,552,81106,12622,60771,189,180,4.2,6,6,777.7,77777,9,999999999,0,0.0000,0,0,999.000,0.0,99.0
2014,3,17,14,0,?9?9?9?9E0?9?9?9?9*9?9?9?9?9*9?9*9*9?9*_?9?9*9?9*9,25.5,18.5,65,98090,1189,1380,404,645,193,479,77440,18344,52696,177,180,4.2,6,6,777.7,77777,9,999999999,0,0.0000,0,0,999.000,0.0,99.0
2014,3,17,15,0,?9?9?9?9E0?9?9?9?9*9?9?9?9?9*9?9*9*9?9*_?9?9*9?9*9,25.6,18.5,65,98090,1015,1380,404,564,322,327,67699,30582,36022,142,180,3.9,6,6,777.7,77777,9,999999999,0,0.0000,0,0,999.000,0.0,99.0
2014,3,17,16,0,?9?9?9?9E0?9?9?9?9*9?9?9?9?9*9?9*9*9?9*_?9?9*9?9*9,25.5,18.5,65,98090,773,1380,408,438,420,204,52616,39860,22396,116,180,3.9,7,7,777.7,77777,9,999999999,0,0.0000,0,0,999.000,0.0,99.0
2014,3,17,17,0,?9?9?9?9E0?9?9?9?9*9?9?9?9?9*9?9*9*9?9*_?9?9*9?9*9,25.1,18.5,66,98090,479,1380,406,279,479,113,33442,45498,12391,103,180,3.8,7,7,777.7,77777,9,999999999,0,0.0000,0,0,999.000,0.0,99.0
2014,3,17,18,0,?9?9?9?9E0?9?9?9?9*9?9?9?9?9*9?9*9*9?9*_?9?9*9?9*9,24.6,18.6,72,98090,156,1380,410,104,222,79,12424,21066,8693,228,180,3.3,8,8,777.7,77777,9,999999999,0,0.0000,0,0,999.000,0.1,99.0
2014,3,17,19,0,?9?9?9?9E0?9?9?9?9*9?9?9?9?9*9?9*9*9?9*_?9?9*9?9*9,24.2,18.6,74,98090,0,1380,408,0,0,0,0,0,0,0,180,2.4,8,8,777.7,77777,9,999999999,0,0.0000,0,0,999.000,0.2,99.0
2014,3,17,20,0,?9?9?9?9E0?9?9?9?9*9?9?9?9?9*9?9*9*9?9*_?9?9*9?9*9,23.9,18.6,75,98090,0,1380,406,0,0,0,0,0,0,0,180,2.2,8,8,777.7,77777,9,999999999,0,0.0000,0,0,999.000,0.1,99.0
2014,3,17,21,0,?9?9?9?9E0?9?9?9?9*9?9?9?9?9*9?9*9*9?9*_?9?9*9?9*9,23.5,18.6,77,98090,0,1380,404,0,0,0,0,0,0,0,180,1.5,8,8,777.7,77777,9,999999999,0,0.0000,0,0,999.000,0.6,99.0
2014,3,17,22,0,?9?9?9?9E0?9?9?9?9*9?9?9?9?9*9?9*9*9?9*_?9?9*9?9*9,23.1,18.6,87,98090,0,1380,402,0,0,0,0,0,0,0,180,1.5,8,8,777.7,77777,9,999999999,8,0.0000,0,0,999.000,8.6,99.0
2014,3,17,23,0,?9?9?9?9E0?9?9?9?9*9?9?9?9?9*9?9*9*9?9*_?9?9*9?9*9,22.8,18.6,79,98090,0,1380,400,0,0,0,0,0,0,0,180,1.3,8,8,777.7,77777,9,999999999,0,0.0000,0,0,999.000,0.3,99.0
2014,3,17,24,0,?9?9?9?9E0?9?9?9?9*9?9?9?9?9*9?9*9*9?9*_?9?9*9?9*9,22.4,19.5,81,98090,0,1380,399,0,0,0,0,0,0,0,180,1.3,8,8,777.7,77777,9,999999999,0,0.0000,0,0,999.000,0.6,99.0
2014,3,18,1,0,?9?9?9?9E0?9?9?9?9*9?9?9?9?9*9?9*9*9?9*_?9?9*9?9*9,22.2,19.5,90,98090,0,1380,398,0,0,0,0,0,0,0,180,1.3,8,8,777.7,77777,9,999999999,8,0.0000,0,0,999.000,8.6,99.0
2014,3,18,2,0,?9?9?9?9E0?9?9?9?9*9?9?9?9?9*9?9*9*9?9*_?9?9*9?9*9,22.1,19.5,83,98090,0,1380,391,0,0,0,0,0,0,0,180,1.0,7,7,777.7,77777,9,999999999,0,0.0000,0,0,999.000,0.1,99.0
2014,3,18,3,0,?9?9?9?9E0?9?9?9?9*9?9?9?9?9*9?9*9*9?9*_?9?9*9?9*9,21.9,19.5,83,98090,0,1380,390,0,0,0,0,0,0,0,180,0.9,7,7,777.7,77777,9,999999999,0,0.0000,0,0,999.000,0.1,99.0
2014,3,18,4,0,?9?9?9?9E0?9?9?9?9*9?9?9?9?9*9?9*9*9?9*_?9?9*9?9*9,21.7,19.5,84,98090,0,1379,389,0,0,0,0,0,0,0,180,1.0,7,7,777.7,77777,9,999999999,0,0.0000,0,0,999.000,0.0,99.0
2014,3,18,5,0,?9?9?9?9E0?9?9?9?9*9?9?9?9?9*9?9*9*9?9*_?9?9*9?9*9,21.5,19.5,85,98090,0,1379,388,0,0,0,0,0,0,0,180,1.2,7,7,777.7,77777,9,999999999,0,0.0000,0,0,999.000,0.3,99.0
2014,3,18,6,0,?9?9?9?9E0?9?9?9?9*9?9?9?9?9*9?9*9*9?9*_?9?9*9?9*9,21.4,19.5,81,98090,0,1379,387,0,0,0,0,0,0,0,180,1.6,7,7,777.7,77777,9,999999999,0,0.0000,0,0,999.000,0.0,99.0
2014,3,18,7,0,?9?9?9?9E0?9?9?9?9*9?9?9?9?9*9?9*9*9?9*_?9?9*9?9*9,21.3,19.5,82,98090,206,1379,387,2,0,2,206,0,189,4,180,1.6,7,7,777.7,77777,9,999999999,0,0.0000,0,0,999.000,0.0,99.0
2014,3,18,8,0,?9?9?9?9E0?9?9?9?9*9?9?9?9?9*9?9*9*9?9*_?9?9*9?9*9,21.2,19.5,82,98090,526,1379,386,159,38,145,19116,3578,15945,121,180,1.7,7,7,777.7,77777,9,999999999,0,0.0000,0,0,999.000,0.0,99.0
2014,3,18,9,0,?9?9?9?9E0?9?9?9?9*9?9?9?9?9*9?9*9*9?9*_?9?9*9?9*9,24.2,19.6,71,98090,812,1379,394,366,154,275,43908,14665,30253,149,180,2.4,5,5,777.7,77777,9,999999999,0,0.0000,0,0,999.000,0.0,99.0
2014,3,18,10,0,?9?9?9?9E0?9?9?9?9*9?9?9?9?9*9?9*9*9?9*_?9?9*9?9*9,25.2,19.6,68,98090,1044,1379,400,523,161,401,62732,15248,44143,169,180,3.2,5,5,777.7,77777,9,999999999,0,0.0000,0,0,999.000,0.0,99.0
2014,3,18,11,0,?9?9?9?9E0?9?9?9?9*9?9?9?9?9*9?9*9*9?9*_?9?9*9?9*9,26.2,19.7,65,98090,1205,1379,402,684,299,423,82114,28440,46496,154,180,4.3,4,4,777.7,77777,9,999999999,0,0.0000,0,0,999.000,0.0,99.0
2014,3,18,12,0,?9?9?9?9E0?9?9?9?9*9?9?9?9?9*9?9*9*9?9*_?9?9*9?9*9,27.0,19.7,63,98090,1285,1379,406,777,387,417,93218,36723,45836,142,180,4.8,4,4,777.7,77777,9,999999999,0,0.0000,0,0,999.000,0.0,99.0
2014,3,18,13,0,?9?9?9?9E0?9?9?9?9*9?9?9?9?9*9?9*9*9?9*_?9?9*9?9*9,27.6,19.7,61,98090,1278,1379,407,846,562,325,101537,53396,35803,112,180,5.3,3,3,777.7,77777,9,999999999,0,0.0000,0,0,999.000,0.0,99.0
2014,3,18,14,0,?9?9?9?9E0?9?9?9?9*9?9?9?9?9*9?9*9*9?9*_?9?9*9?9*9,28.0,19.7,60,98090,1184,1379,409,789,567,303,94699,53842,33300,112,180,5.9,3,3,777.7,77777,9,999999999,0,0.0000,0,0,999.000,0.0,99.0
2014,3,18,15,0,?9?9?9?9E0?9?9?9?9*9?9?9?9?9*9?9*9*9?9*_?9?9*9?9*9,28.2,19.7,60,98090,1010,1379,410,713,694,205,85579,65958,22536,89,180,5.8,3,3,777.7,77777,9,999999999,0,0.0000,0,0,999.000,0.0,99.0
2014,3,18,16,0,?9?9?9?9E0?9?9?9?9*9?9?9?9?9*9?9*9*9?9*_?9?9*9?9*9,28.1,19.7,60,98090,768,1379,405,582,823,125,69865,78153,13695,71,180,5.6,2,2,777.7,77777,9,999999999,0,0.0000,0,0,999.000,0.0,99.0
2014,3,18,17,0,?9?9?9?9E0?9?9?9?9*9?9?9?9?9*9?9*9*9?9*_?9?9*9?9*9,27.6,19.7,61,98090,474,1379,413,347,709,104,41609,67343,11387,96,180,5.1,5,5,777.7,77777,9,999999999,0,0.0000,0,0,999.000,0.0,99.0
2014,3,18,18,0,?9?9?9?9E0?9?9?9?9*9?9?9?9?9*9?9*9*9?9*_?9?9*9?9*9,26.8,19.7,63,98090,151,1379,424,120,315,86,14344,29925,9447,256,180,4.5,8,8,777.7,77777,9,999999999,0,0.0000,0,0,999.000,0.0,99.0
2014,3,18,19,0,?9?9?9?9E0?9?9?9?9*9?9?9?9?9*9?9*9*9?9*_?9?9*9?9*9,26.1,19.7,69,98090,0,1379,420,0,0,0,0,0,0,0,180,3.7,8,8,777.7,77777,9,999999999,0,0.0000,0,0,999.000,0.0,99.0
2014,3,18,20,0,?9?9?9?9E0?9?9?9?9*9?9?9?9?9*9?9*9*9?9*_?9?9*9?9*9,25.5,19.6,71,98090,0,1379,416,0,0,0,0,0,0,0,180,3.0,8,8,777.7,77777,9,999999999,0,0.0000,0,0,999.000,0.0,99.0
2014,3,18,21,0,?9?9?9?9E0?9?9?9?9*9?9?9?9?9*9?9*9*9?9*_?9?9*9?9*9,24.9,19.6,73,98090,0,1379,413,0,0,0,0,0,0,0,180,2.2,8,8,777.7,77777,9,999999999,0,0.0000,0,0,999.000,0.2,99.0
2014,3,18,22,0,?9?9?9?9E0?9?9?9?9*9?9?9?9?9*9?9*9*9?9*_?9?9*9?9*9,24.2,19.6,75,98090,0,1379,409,0,0,0,0,0,0,0,180,1.8,8,8,777.7,77777,9,999999999,0,0.0000,0,0,999.000,0.1,99.0
2014,3,18,23,0,?9?9?9?9E0?9?9?9?9*9?9?9?9?9*9?9*9*9?9*_?9?9*9?9*9,23.6,19.6,73,98090,0,1379,405,0,0,0,0,0,0,0,180,1.7,8,8,777.7,77777,9,999999999,0,0.0000,0,0,999.000,0.0,99.0
2014,3,18,24,0,?9?9?9?9E0?9?9?9?9*9?9?9?9?9*9?9*9*9?9*_?9?9*9?9*9,22.9,20.1,81,98090,0,1379,403,0,0,0,0,0,0,0,180,3.8,8,8,777.7,77777,9,999999999,0,0.0000,0,0,999.000,0.2,99.0
2014,3,19,1,0,?9?9?9?9E0?9?9?9?9*9?9?9?9?9*9?9*9*9?9*_?9?9*9?9*9,22.6,20.0,78,98090,0,1379,401,0,0,0,0,0,0,0,180,3.5,8,8,777.7,77777,9,999999999,0,0.0000,0,0,999.000,0.0,99.0
2014,3,19,2,0,?9?9?9?9E0?9?9?9?9*9?9?9?9?9*9?9*9*9?9*_?9?9*9?9*9,22.3,19.9,83,98090,0,1379,399,0,0,0,0,0,0,0,180,2.6,8,8,777.7,77777,9,999999999,0,0.0000,0,0,999.000,0.0,99.0
2014,3,19,3,0,?9?9?9?9E0?9?9?9?9*9?9?9?9?9*9?9*9*9?9*_?9?9*9?9*9,22.0,19.8,84,98090,0,1379,397,0,0,0,0,0,0,0,180,2.2,8,8,777.7,77777,9,999999999,0,0.0000,0,0,999.000,0.1,99.0
2014,3,19,4,0,?9?9?9?9E0?9?9?9?9*9?9?9?9?9*9?9*9*9?9*_?9?9*9?9*9,21.6,19.7,85,98090,0,1378,395,0,0,0,0,0,0,0,180,2.2,8,8,777.7,77777,9,999999999,0,0.0000,0,0,999.000,0.0,99.0
2014,3,19,5,0,?9?9?9?9E0?9?9?9?9*9?9?9?9?9*9?9*9*9?9*_?9?9*9?9*9,21.3,19.7,93,98090,0,1378,393,0,0,0,0,0,0,0,180,2.2,8,8,777.7,77777,9,999999999,17,0.0000,0,0,999.000,17.4,99.0
2014,3,19,6,0,?9?9?9?9E0?9?9?9?9*9?9?9?9?9*9?9*9*9?9*_?9?9*9?9*9,21.1,19.6,86,98090,0,1378,392,0,0,0,0,0,0,0,180,2.2,8,8,777.7,77777,9,999999999,0,0.0000,0,0,999.000,0.7,99.0
2014,3,19,7,0,?9?9?9?9E0?9?9?9?9*9?9?9?9?9*9?9*9*9?9*_?9?9*9?9*9,20.9,19.5,83,98090,204,1378,391,1,0,1,92,0,85,2,180,2.2,8,8,777.7,77777,9,999999999,0,0.0000,0,0,999.000,0.0,99.0
2014,3,19,8,0,?9?9?9?9E0?9?9?9?9*9?9?9?9?9*9?9*9*9?9*_?9?9*9?9*9,20.6,19.5,84,98090,524,1378,390,88,0,88,10554,0,9675,74,180,2.3,8,8,777.7,77777,9,999999999,0,0.0000,0,0,999.000,0.0,99.0
2014,3,19,9,0,?9?9?9?9E0?9?9?9?9*9?9?9?9?9*9?9*9*9?9*_?9?9*9?9*9,23.5,20.2,76,98090,810,1378,406,207,10,201,24822,922,22127,109,180,3.3,8,8,777.7,77777,9,999999999,0,0.0000,0,0,999.000,0.0,99.0
2014,3,19,10,0,?9?9?9?9E0?9?9?9?9*9?9?9?9?9*9?9*9*9?9*_?9?9*9?9*9,24.6,20.5,73,98090,1041,1378,412,312,14,302,37493,1346,33192,127,180,5.3,8,8,777.7,77777,9,999999999,0,0.0000,0,0,999.000,0.0,99.0
2014,3,19,11,0,?9?9?9?9E0?9?9?9?9*9?9?9?9?9*9?9*9*9?9*_?9?9*9?9*9,25.5,20.7,71,98090,1202,1378,418,393,27,370,47209,2555,40696,135,180,6.2,8,8,777.7,77777,9,999999999,0,0.0000,0,0,999.000,0.0,99.0
2014,3,19,12,0,?9?9?9?9E0?9?9?9?9*9?9?9?9?9*9?9*9*9?9*_?9?9*9?9*9,26.3,20.9,69,98090,1281,1378,422,443,43,403,53183,4116,44321,138,180,6.7,8,8,777.7,77777,9,999999999,0,0.0000,0,0,999.000,0.0,99.0
2014,3,19,13,0,?9?9?9?9E0?9?9?9?9*9?9?9?9?9*9?9*9*9?9*_?9?9*9?9*9,26.8,21.0,71,98090,1273,1378,426,458,50,412,54966,4746,45309,142,180,6.8,8,8,777.7,77777,9,999999999,0,0.0000,0,0,999.000,0.1,99.0
2014,3,19,14,0,?9?9?9?9E0?9?9?9?9*9?9?9?9?9*9?9*9*9?9*_?9?9*9?9*9,27.2,21.1,71,98090,1179,1378,428,452,59,401,54204,5645,44096,149,180,8.1,8,8,777.7,77777,9,999999999,0,0.0000,0,0,999.000,0.0,99.0
2014,3,19,15,0,?9?9?9?9E0?9?9?9?9*9?9?9?9?9*9?9*9*9?9*_?9?9*9?9*9,26.5,21.0,72,98090,1005,1378,424,175,3,173,21020,292,19022,76,180,6.9,8,8,777.7,77777,9,999999999,0,0.0000,0,0,999.000,0.2,99.0
2014,3,19,16,0,?9?9?9?9E0?9?9?9?9*9?9?9?9?9*9?9*9*9?9*_?9?9*9?9*9,26.3,20.9,69,98090,763,1378,422,254,108,194,30470,10232,21380,112,180,5.2,8,8,777.7,77777,9,999999999,0,0.0000,0,0,999.000,0.0,99.0
2014,3,19,17,0,?9?9?9?9E0?9?9?9?9*9?9?9?9?9*9?9*9*9?9*_?9?9*9?9*9,26.3,20.9,69,98090,469,1378,411,317,392,184,38016,37238,20209,172,180,4.5,6,6,777.7,77777,9,999999999,0,0.0000,0,0,999.000,0.0,99.0
2014,3,19,18,0,?9?9?9?9E0?9?9?9?9*9?9?9?9?9*9?9*9*9?9*_?9?9*9?9*9,25.8,20.8,74,98090,146,1378,419,116,258,90,13964,24527,9872,277,180,3.5,8,8,777.7,77777,9,999999999,0,0.0000,0,0,999.000,0.5,99.0
2014,3,19,19,0,?9?9?9?9E0?9?9?9?9*9?9?9?9?9*9?9*9*9?9*_?9?9*9?9*9,25.2,20.6,75,98090,0,1378,416,0,0,0,0,0,0,0,180,2.4,8,8,777.7,77777,9,999999999,0,0.0000,0,0,999.000,0.0,99.0
2014,3,19,20,0,?9?9?9?9E0?9?9?9?9*9?9?9?9?9*9?9*9*9?9*_?9?9*9?9*9,24.6,20.5,77,98090,0,1378,413,0,0,0,0,0,0,0,180,2.2,8,8,777.7,77777,9,999999999,0,0.0000,0,0,999.000,0.1,99.0
2014,3,19,21,0,?9?9?9?9E0?9?9?9?9*9?9?9?9?9*9?9*9*9?9*_?9?9*9?9*9,24.1,20.4,78,98090,0,1378,409,0,0,0,0,0,0,0,180,2.2,8,8,777.7,77777,9,999999999,0,0.0000,0,0,999.000,0.3,99.0
2014,3,19,22,0,?9?9?9?9E0?9?9?9?9*9?9?9?9?9*9?9*9*9?9*_?9?9*9?9*9,23.5,20.2,83,98090,0,1378,406,0,0,0,0,0,0,0,180,2.2,8,8,777.7,77777,9,999999999,1,0.0000,0,0,999.000,1.3,99.0
2014,3,19,23,0,?9?9?9?9E0?9?9?9?9*9?9?9?9?9*9?9*9*9?9*_?9?9*9?9*9,23.0,20.1,77,98090,0,1378,403,0,0,0,0,0,0,0,180,2.2,8,8,777.7,77777,9,999999999,0,0.0000,0,0,999.000,0.0,99.0
2014,3,19,24,0,?9?9?9?9E0?9?9?9?9*9?9?9?9?9*9?9*9*9?9*_?9?9*9?9*9,22.4,19.7,87,98090,0,1378,399,0,0,0,0,0,0,0,180,1.7,8,8,777.7,77777,9,999999999,1,0.0000,0,0,999.000,1.1,99.0
2014,3,20,1,0,?9?9?9?9E0?9?9?9?9*9?9?9?9?9*9?9*9*9?9*_?9?9*9?9*9,22.2,19.6,79,98090,0,1378,398,0,0,0,0,0,0,0,180,1.7,8,8,777.7,77777,9,999999999,0,0.0000,0,0,999.000,0.0,99.0
2014,3,20,2,0,?9?9?9?9E0?9?9?9?9*9?9?9?9?9*9?9*9*9?9*_?9?9*9?9*9,21.9,19.6,85,98090,0,1378,396,0,0,0,0,0,0,0,180,1.7,8,8,777.7,77777,9,999999999,0,0.0000,0,0,999.000,0.0,99.0
2014,3,20,3,0,?9?9?9?9E0?9?9?9?9*9?9?9?9?9*9?9*9*9?9*_?9?9*9?9*9,21.6,19.5,86,98090,0,1378,395,0,0,0,0,0,0,0,180,1.7,8,8,777.7,77777,9,999999999,0,0.0000,0,0,999.000,0.3,99.0
2014,3,20,4,0,?9?9?9?9E0?9?9?9?9*9?9?9?9?9*9?9*9*9?9*_?9?9*9?9*9,21.3,19.5,91,98090,0,1378,393,0,0,0,0,0,0,0,180,1.7,8,8,777.7,77777,9,999999999,2,0.0000,0,0,999.000,2.6,99.0
2014,3,20,5,0,?9?9?9?9E0?9?9?9?9*9?9?9?9?9*9?9*9*9?9*_?9?9*9?9*9,21.1,19.4,93,98090,0,1378,392,0,0,0,0,0,0,0,180,1.7,8,8,777.7,77777,9,999999999,1,0.0000,0,0,999.000,1.4,99.0
2014,3,20,6,0,?9?9?9?9E0?9?9?9?9*9?9?9?9?9*9?9*9*9?9*_?9?9*9?9*9,20.9,19.4,89,98090,0,1378,391,0,0,0,0,0,0,0,180,1.7,8,8,777.7,77777,9,999999999,0,0.0000,0,0,999.000,0.5,99.0
2014,3,20,7,0,?9?9?9?9E0?9?9?9?9*9?9?9?9?9*9?9*9*9?9*_?9?9*9?9*9,20.7,19.4,90,98090,202,1378,390,1,0,1,90,0,83,2,180,1.7,8,8,777.7,77777,9,999999999,0,0.0000,0,0,999.000,0.2,99.0
2014,3,20,8,0,?9?9?9?9E0?9?9?9?9*9?9?9?9?9*9?9*9*9?9*_?9?9*9?9*9,20.5,19.3,90,98090,522,1378,389,94,0,94,11220,0,10285,79,180,1.7,8,8,777.7,77777,9,999999999,0,0.0000,0,0,999.000,0.0,99.0
2014,3,20,9,0,?9?9?9?9E0?9?9?9?9*9?9?9?9?9*9?9*9*9?9*_?9?9*9?9*9,23.6,19.9,78,98090,807,1378,406,221,14,212,26476,1346,23357,115,180,1.7,8,8,777.7,77777,9,999999999,0,0.0000,0,0,999.000,0.1,99.0
2014,3,20,10,0,?9?9?9?9E0?9?9?9?9*9?9?9?9?9*9?9*9*9?9*_?9?9*9?9*9,24.8,20.0,74,98090,1038,1378,413,333,18,320,40019,1736,35170,135,180,1.7,8,8,777.7,77777,9,999999999,0,0.0000,0,0,999.000,0.4,99.0
2014,3,20,11,0,?9?9?9?9E0?9?9?9?9*9?9?9?9?9*9?9*9*9?9*_?9?9*9?9*9,25.8,20.2,70,98090,1198,1378,418,420,34,390,50396,3256,42917,143,180,1.8,8,8,777.7,77777,9,999999999,0,0.0000,0,0,999.000,0.6,99.0
2014,3,20,12,0,?9?9?9?9E0?9?9?9?9*9?9?9?9?9*9?9*9*9?9*_?9?9*9?9*9,26.6,20.4,68,98090,1277,1378,423,473,55,422,56767,5271,46379,145,180,1.8,8,8,777.7,77777,9,999999999,0,0.0000,0,0,999.000,0.7,99.0
2014,3,20,13,0,?9?9?9?9E0?9?9?9?9*9?9?9?9?9*9?9*9*9?9*_?9?9*9?9*9,27.2,20.4,71,98090,1269,1378,427,489,65,429,58652,6144,47212,148,180,2.7,8,8,777.7,77777,9,999999999,1,0.0000,0,0,999.000,1.9,99.0
2014,3,20,14,0,?9?9?9?9E0?9?9?9?9*9?9?9?9?9*9?9*9*9?9*_?9?9*9?9*9,27.5,20.5,70,98090,1174,1378,429,466,55,419,55912,5272,46049,156,180,3.3,8,8,777.7,77777,9,999999999,4,0.0000,0,0,999.000,4.2,99.0
2014,3,20,15,0,?9?9?9?9E0?9?9?9?9*9?9?9?9?9*9?9*9*9?9*_?9?9*9?9*9,27.6,20.5,65,98090,1000,1378,430,406,57,365,48748,5442,40113,160,180,4.2,8,8,777.7,77777,9,999999999,0,0.0000,0,0,999.000,0.1,99.0
2014,3,20,16,0,?9?9?9?9E0?9?9?9?9*9?9?9?9?9*9?9*9*9?9*_?9?9*9?9*9,27.5,20.5,65,98090,758,1378,428,314,103,257,37702,9821,28311,149,180,3.9,8,8,777.7,77777,9,999999999,0,0.0000,0,0,999.000,0.3,99.0
2014,3,20,17,0,?9?9?9?9E0?9?9?9?9*9?9?9?9?9*9?9*9*9?9*_?9?9*9?9*9,26.9,20.4,67,98090,464,1378,425,197,191,133,23693,18104,14677,126,180,3.5,8,8,777.7,77777,9,999999999,0,0.0000,0,0,999.000,0.1,99.0
2014,3,20,18,0,?9?9?9?9E0?9?9?9?9*9?9?9?9?9*9?9*9*9?9*_?9?9*9?9*9,26.1,20.3,69,98090,140,1378,420,70,170,53,8416,16145,5856,170,180,3.1,8,8,777.7,77777,9,999999999,0,0.0000,0,0,999.000,0.0,99.0
2014,3,20,19,0,?9?9?9?9E0?9?9?9?9*9?9?9?9?9*9?9*9*9?9*_?9?9*9?9*9,25.6,20.2,71,98090,0,1378,418,0,0,0,0,0,0,0,180,2.1,8,8,777.7,77777,9,999999999,0,0.0000,0,0,999.000,0.0,99.0
2014,3,20,20,0,?9?9?9?9E0?9?9?9?9*9?9?9?9?9*9?9*9*9?9*_?9?9*9?9*9,25.1,20.1,73,98090,0,1378,415,0,0,0,0,0,0,0,180,1.7,8,8,777.7,77777,9,999999999,0,0.0000,0,0,999.000,0.2,99.0
2014,3,20,21,0,?9?9?9?9E0?9?9?9?9*9?9?9?9?9*9?9*9*9?9*_?9?9*9?9*9,24.6,20.0,74,98090,0,1378,412,0,0,0,0,0,0,0,180,1.7,8,8,777.7,77777,9,999999999,0,0.0000,0,0,999.000,0.9,99.0
2014,3,20,22,0,?9?9?9?9E0?9?9?9?9*9?9?9?9?9*9?9*9*9?9*_?9?9*9?9*9,24.1,19.9,76,98090,0,1378,409,0,0,0,0,0,0,0,180,1.7,8,8,777.7,77777,9,999999999,0,0.0000,0,0,999.000,0.1,99.0
2014,3,20,23,0,?9?9?9?9E0?9?9?9?9*9?9?9?9?9*9?9*9*9?9*_?9?9*9?9*9,23.6,19.9,87,98090,0,1378,406,0,0,0,0,0,0,0,180,1.7,8,8,777.7,77777,9,999999999,44,0.0000,0,0,999.000,44.2,99.0
2014,3,20,24,0,?9?9?9?9E0?9?9?9?9*9?9?9?9?9*9?9*9*9?9*_?9?9*9?9*9,23.1,19.7,78,98090,0,1378,403,0,0,0,0,0,0,0,180,1.2,8,8,777.7,77777,9,999999999,0,0.0000,0,0,999.000,0.1,99.0
2014,3,21,1,0,?9?9?9?9E0?9?9?9?9*9?9?9?9?9*9?9*9*9?9*_?9?9*9?9*9,22.9,19.7,78,98090,0,1378,402,0,0,0,0,0,0,0,180,1.2,8,8,777.7,77777,9,999999999,0,0.0000,0,0,999.000,0.1,99.0
2014,3,21,2,0,?9?9?9?9E0?9?9?9?9*9?9?9?9?9*9?9*9*9?9*_?9?9*9?9*9,22.6,19.7,79,98090,0,1378,400,0,0,0,0,0,0,0,180,1.2,8,8,777.7,77777,9,999999999,0,0.0000,0,0,999.000,0.0,99.0
2014,3,21,3,0,?9?9?9?9E0?9?9?9?9*9?9?9?9?9*9?9*9*9?9*_?9?9*9?9*9,22.4,19.7,80,98090,0,1378,399,0,0,0,0,0,0,0,180,1.2,8,8,777.7,77777,9,999999999,0,0.0000,0,0,999.000,0.0,99.0
2014,3,21,4,0,?9?9?9?9E0?9?9?9?9*9?9?9?9?9*9?9*9*9?9*_?9?9*9?9*9,22.1,19.7,81,98090,0,1377,398,0,0,0,0,0,0,0,180,1.2,8,8,777.7,77777,9,999999999,0,0.0000,0,0,999.000,0.4,99.0
2014,3,21,5,0,?9?9?9?9E0?9?9?9?9*9?9?9?9?9*9?9*9*9?9*_?9?9*9?9*9,21.9,19.7,82,98090,0,1377,396,0,0,0,0,0,0,0,180,1.2,8,8,777.7,77777,9,999999999,0,0.0000,0,0,999.000,0.2,99.0
2014,3,21,6,0,?9?9?9?9E0?9?9?9?9*9?9?9?9?9*9?9*9*9?9*_?9?9*9?9*9,21.6,19.6,82,98090,0,1377,395,0,0,0,0,0,0,0,180,1.2,8,8,777.7,77777,9,999999999,0,0.0000,0,0,999.000,0.3,99.0
2014,3,21,7,0,?9?9?9?9E0?9?9?9?9*9?9?9?9?9*9?9*9*9?9*_?9?9*9?9*9,21.5,19.6,90,98090,200,1377,394,1,0,1,84,0,77,2,180,1.2,8,8,777.7,77777,9,999999999,16,0.0000,0,0,999.000,16.6,99.0
2014,3,21,8,0,?9?9?9?9E0?9?9?9?9*9?9?9?9?9*9?9*9*9?9*_?9?9*9?9*9,21.3,19.6,83,98090,519,1377,393,96,0,96,11574,0,10610,82,180,1.2,8,8,777.7,77777,9,999999999,0,0.0000,0,0,999.000,0.2,99.0
2014,3,21,9,0,?9?9?9?9E0?9?9?9?9*9?9?9?9?9*9?9*9*9?9*_?9?9*9?9*9,24.2,19.8,74,98090,805,1377,409,228,17,218,27400,1637,24009,119,180,1.2,8,8,777.7,77777,9,999999999,0,0.0000,0,0,999.000,0.1,99.0
2014,3,21,10,0,?9?9?9?9E0?9?9?9?9*9?9?9?9?9*9?9*9*9?9*_?9?9*9?9*9,25.3,19.9,75,98090,1035,1377,415,345,21,329,41444,2013,36239,140,180,1.8,8,8,777.7,77777,9,999999999,1,0.0000,0,0,999.000,1.2,99.0
2014,3,21,11,0,?9?9?9?9E0?9?9?9?9*9?9?9?9?9*9?9*9*9?9*_?9?9*9?9*9,26.2,19.9,69,98090,1195,1377,421,435,40,401,52200,3760,44073,147,180,2.5,8,8,777.7,77777,9,999999999,0,0.0000,0,0,999.000,0.7,99.0
2014,3,21,12,0,?9?9?9?9E0?9?9?9?9*9?9?9?9?9*9?9*9*9?9*_?9?9*9?9*9,27.0,20.0,67,98090,1273,1377,425,490,64,431,58792,6101,47361,148,180,3.6,8,8,777.7,77777,9,999999999,0,0.0000,0,0,999.000,0.0,99.0
2014,3,21,13,0,?9?9?9?9E0?9?9?9?9*9?9?9?9?9*9?9*9*9?9*_?9?9*9?9*9,27.6,20.0,66,98090,1265,1377,428,506,44,465,60725,4206,51192,161,180,3.9,8,8,777.7,77777,9,999999999,0,0.0000,0,0,999.000,0.0,99.0
2014,3,21,14,0,?9?9?9?9E0?9?9?9?9*9?9?9?9?9*9?9*9*9?9*_?9?9*9?9*9,27.9,20.0,62,98090,1170,1377,430,482,65,427,57856,6160,46976,160,180,4.3,8,8,777.7,77777,9,999999999,0,0.0000,0,0,999.000,0.0,99.0
2014,3,21,15,0,?9?9?9?9E0?9?9?9?9*9?9?9?9?9*9?9*9*9?9*_?9?9*9?9*9,28.0,20.0,61,98090,995,1377,431,420,67,371,50396,6385,40856,164,180,4.3,8,8,777.7,77777,9,999999999,0,0.0000,0,0,999.000,0.0,99.0
2014,3,21,16,0,?9?9?9?9E0?9?9?9?9*9?9?9?9?9*9?9*9*9?9*_?9?9*9?9*9,27.9,20.0,62,98090,752,1377,430,324,121,258,38911,11541,28373,150,180,3.8,8,8,777.7,77777,9,999999999,0,0.0000,0,0,999.000,0.0,99.0
2014,3,21,17,0,?9?9?9?9E0?9?9?9?9*9?9?9?9?9*9?9*9*9?9*_?9?9*9?9*9,27.3,20.0,63,98090,459,1377,427,203,223,129,24358,21154,14190,124,180,3.8,8,8,777.7,77777,9,999999999,0,0.0000,0,0,999.000,0.0,99.0
2014,3,21,18,0,?9?9?9?9E0?9?9?9?9*9?9?9?9?9*9?9*9*9?9*_?9?9*9?9*9,26.6,20.0,65,98090,135,1377,423,71,188,53,8515,17850,5827,176,180,3.2,8,8,777.7,77777,9,999999999,0,0.0000,0,0,999.000,0.0,99.0
2014,3,21,19,0,?9?9?9?9E0?9?9?9?9*9?9?9?9?9*9?9*9*9?9*_?9?9*9?9*9,26.0,19.9,66,98090,0,1377,419,0,0,0,0,0,0,0,180,2.5,8,8,777.7,77777,9,999999999,0,0.0000,0,0,999.000,0.0,99.0
2014,3,21,20,0,?9?9?9?9E0?9?9?9?9*9?9?9?9?9*9?9*9*9?9*_?9?9*9?9*9,25.4,19.9,68,98090,0,1377,416,0,0,0,0,0,0,0,180,2.3,8,8,777.7,77777,9,999999999,0,0.0000,0,0,999.000,0.0,99.0
2014,3,21,21,0,?9?9?9?9E0?9?9?9?9*9?9?9?9?9*9?9*9*9?9*_?9?9*9?9*9,24.8,19.8,70,98090,0,1377,412,0,0,0,0,0,0,0,180,1.5,8,8,777.7,77777,9,999999999,0,0.0000,0,0,999.000,0.0,99.0
2014,3,21,22,0,?9?9?9?9E0?9?9?9?9*9?9?9?9?9*9?9*9*9?9*_?9?9*9?9*9,24.2,19.8,71,98090,0,1377,409,0,0,0,0,0,0,0,180,1.3,8,8,777.7,77777,9,999999999,0,0.0000,0,0,999.000,0.0,99.0
2014,3,21,23,0,?9?9?9?9E0?9?9?9?9*9?9?9?9?9*9?9*9*9?9*_?9?9*9?9*9,23.6,19.8,73,98090,0,1377,406,0,0,0,0,0,0,0,180,1.2,8,8,777.7,77777,9,999999999,0,0.0000,0,0,999.000,0.0,99.0
2014,3,21,24,0,?9?9?9?9E0?9?9?9?9*9?9?9?9?9*9?9*9*9?9*_?9?9*9?9*9,23.0,20.2,92,98090,0,1377,403,0,0,0,0,0,0,0,180,1.2,8,8,777.7,77777,9,999999999,4,0.0000,0,0,999.000,4.4,99.0
2014,3,22,1,0,?9?9?9?9E0?9?9?9?9*9?9?9?9?9*9?9*9*9?9*_?9?9*9?9*9,22.7,20.2,89,98090,0,1377,401,0,0,0,0,0,0,0,180,1.1,8,8,777.7,77777,9,999999999,0,0.0000,0,0,999.000,0.0,99.0
2014,3,22,2,0,?9?9?9?9E0?9?9?9?9*9?9?9?9?9*9?9*9*9?9*_?9?9*9?9*9,22.4,20.1,85,98090,0,1377,393,0,0,0,0,0,0,0,180,1.1,7,7,777.7,77777,9,999999999,0,0.0000,0,0,999.000,0.0,99.0
2014,3,22,3,0,?9?9?9?9E0?9?9?9?9*9?9?9?9?9*9?9*9*9?9*_?9?9*9?9*9,22.1,20.1,91,98090,0,1377,392,0,0,0,0,0,0,0,180,1.1,7,7,777.7,77777,9,999999999,0,0.0000,0,0,999.000,0.0,99.0
2014,3,22,4,0,?9?9?9?9E0?9?9?9?9*9?9?9?9?9*9?9*9*9?9*_?9?9*9?9*9,21.8,20.0,92,98090,0,1376,390,0,0,0,0,0,0,0,180,1.1,7,7,777.7,77777,9,999999999,0,0.0000,0,0,999.000,0.2,99.0
2014,3,22,5,0,?9?9?9?9E0?9?9?9?9*9?9?9?9?9*9?9*9*9?9*_?9?9*9?9*9,21.5,20.0,94,98090,0,1376,388,0,0,0,0,0,0,0,180,1.1,7,7,777.7,77777,9,999999999,0,0.0000,0,0,999.000,0.1,99.0
2014,3,22,6,0,?9?9?9?9E0?9?9?9?9*9?9?9?9?9*9?9*9*9?9*_?9?9*9?9*9,21.2,19.9,90,98090,0,1376,387,0,0,0,0,0,0,0,180,1.1,7,7,777.7,77777,9,999999999,0,0.0000,0,0,999.000,0.0,99.0
2014,3,22,7,0,?9?9?9?9E0?9?9?9?9*9?9?9?9?9*9?9*9*9?9*_?9?9*9?9*9,21.0,19.9,91,98090,198,1376,386,1,0,1,130,0,119,2,180,1.1,7,7,777.7,77777,9,999999999,0,0.0000,0,0,999.000,0.0,99.0
2014,3,22,8,0,?9?9?9?9E0?9?9?9?9*9?9?9?9?9*9?9*9*9?9*_?9?9*9?9*9,20.8,19.9,92,98090,517,1376,385,167,55,146,20022,5270,16064,124,180,1.1,7,7,777.7,77777,9,999999999,0,0.0000,0,0,999.000,0.0,99.0
2014,3,22,9,0,?9?9?9?9E0?9?9?9?9*9?9?9?9?9*9?9*9*9?9*_?9?9*9?9*9,23.9,20.4,79,98090,802,1376,391,388,205,269,46538,19456,29539,147,180,1.4,4,4,777.7,77777,9,999999999,0,0.0000,0,0,999.000,0.0,99.0
2014,3,22,10,0,?9?9?9?9E0?9?9?9?9*9?9?9?9?9*9?9*9*9?9*_?9?9*9?9*9,25.1,20.5,75,98090,1032,1376,394,599,361,328,71822,34251,36105,139,180,2.4,3,3,777.7,77777,9,999999999,0,0.0000,0,0,999.000,0.0,99.0
2014,3,22,11,0,?9?9?9?9E0?9?9?9?9*9?9?9?9?9*9?9*9*9?9*_?9?9*9?9*9,26.1,20.7,71,98090,1191,1376,396,743,450,354,89195,42744,38923,130,180,3.0,2,2,777.7,77777,9,999999999,0,0.0000,0,0,999.000,0.0,99.0
2014,3,22,12,0,?9?9?9?9E0?9?9?9?9*9?9?9?9?9*9?9*9*9?9*_?9?9*9?9*9,27.0,20.8,68,98090,1269,1376,395,862,596,312,103382,56608,34324,108,180,3.4,1,1,777.7,77777,9,999999999,0,0.0000,0,0,999.000,0.0,99.0
2014,3,22,13,0,?9?9?9?9E0?9?9?9?9*9?9?9?9?9*9?9*9*9?9*_?9?9*9?9*9,27.5,20.9,67,98090,1260,1376,404,847,581,315,101642,55232,34617,109,180,4.0,2,2,777.7,77777,9,999999999,0,0.0000,0,0,999.000,0.0,99.0
2014,3,22,14,0,?9?9?9?9E0?9?9?9?9*9?9?9?9?9*9?9*9*9?9*_?9?9*9?9*9,27.8,21.0,66,98090,1165,1376,412,758,540,301,90995,51313,33127,113,180,4.6,4,4,777.7,77777,9,999999999,0,0.0000,0,0,999.000,0.0,99.0
2014,3,22,15,0,?9?9?9?9E0?9?9?9?9*9?9?9?9?9*9?9*9*9?9*_?9?9*9?9*9,27.9,21.0,66,98090,990,1376,413,679,666,201,81529,63246,22077,89,180,4.7,4,4,777.7,77777,9,999999999,0,0.0000,0,0,999.000,0.0,99.0
2014,3,22,16,0,?9?9?9?9E0?9?9?9?9*9?9?9?9?9*9?9*9*9?9*_?9?9*9?9*9,27.6,20.9,67,98090,747,1376,414,507,659,149,60782,62570,16416,88,180,4.7,5,5,777.7,77777,9,999999999,0,0.0000,0,0,999.000,0.0,99.0
2014,3,22,17,0,?9?9?9?9E0?9?9?9?9*9?9?9?9?9*9?9*9*9?9*_?9?9*9?9*9,27.1,20.9,68,98090,453,1376,409,357,496,194,42826,47131,21325,188,180,4.4,4,4,777.7,77777,9,999999999,0,0.0000,0,0,999.000,0.0,99.0
2014,3,22,18,0,?9?9?9?9E0?9?9?9?9*9?9?9?9?9*9?9*9*9?9*_?9?9*9?9*9,26.3,20.7,71,98090,130,1376,411,137,246,115,16499,23409,12631,397,180,4.1,6,6,777.7,77777,9,999999999,0,0.0000,0,0,999.000,0.0,99.0
2014,3,22,19,0,?9?9?9?9E0?9?9?9?9*9?9?9?9?9*9?9*9*9?9*_?9?9*9?9*9,25.9,20.7,72,98090,0,1376,408,0,0,0,0,0,0,0,180,3.2,6,6,777.7,77777,9,999999999,0,0.0000,0,0,999.000,0.0,99.0
2014,3,22,20,0,?9?9?9?9E0?9?9?9?9*9?9?9?9?9*9?9*9*9?9*_?9?9*9?9*9,25.5,20.6,78,98090,0,1376,406,0,0,0,0,0,0,0,180,2.0,6,6,777.7,77777,9,999999999,0,0.0000,0,0,999.000,0.0,99.0
2014,3,22,21,0,?9?9?9?9E0?9?9?9?9*9?9?9?9?9*9?9*9*9?9*_?9?9*9?9*9,25.0,20.5,75,98090,0,1376,404,0,0,0,0,0,0,0,180,1.1,6,6,777.7,77777,9,999999999,0,0.0000,0,0,999.000,0.0,99.0
2014,3,22,22,0,?9?9?9?9E0?9?9?9?9*9?9?9?9?9*9?9*9*9?9*_?9?9*9?9*9,24.6,20.5,81,98090,0,1376,406,0,0,0,0,0,0,0,180,1.1,7,7,777.7,77777,9,999999999,0,0.0000,0,0,999.000,0.1,99.0
2014,3,22,23,0,?9?9?9?9E0?9?9?9?9*9?9?9?9?9*9?9*9*9?9*_?9?9*9?9*9,24.1,20.4,83,98090,0,1376,403,0,0,0,0,0,0,0,180,1.1,7,7,777.7,77777,9,999999999,0,0.0000,0,0,999.000,0.1,99.0
2014,3,22,24,0,?9?9?9?9E0?9?9?9?9*9?9?9?9?9*9?9*9*9?9*_?9?9*9?9*9,23.7,21.3,83,98090,0,1376,402,0,0,0,0,0,0,0,180,1.1,7,7,777.7,77777,9,999999999,0,0.0000,0,0,999.000,0.0,99.0
2014,3,23,1,0,?9?9?9?9E0?9?9?9?9*9?9?9?9?9*9?9*9*9?9*_?9?9*9?9*9,23.5,21.3,84,98090,0,1376,401,0,0,0,0,0,0,0,180,1.1,7,7,777.7,77777,9,999999999,0,0.0000,0,0,999.000,0.0,99.0
2014,3,23,2,0,?9?9?9?9E0?9?9?9?9*9?9?9?9?9*9?9*9*9?9*_?9?9*9?9*9,23.3,21.3,85,98090,0,1376,400,0,0,0,0,0,0,0,180,1.1,7,7,777.7,77777,9,999999999,0,0.0000,0,0,999.000,0.0,99.0
2014,3,23,3,0,?9?9?9?9E0?9?9?9?9*9?9?9?9?9*9?9*9*9?9*_?9?9*9?9*9,23.1,21.3,86,98090,0,1376,399,0,0,0,0,0,0,0,180,1.1,7,7,777.7,77777,9,999999999,0,0.0000,0,0,999.000,0.0,99.0
2014,3,23,4,0,?9?9?9?9E0?9?9?9?9*9?9?9?9?9*9?9*9*9?9*_?9?9*9?9*9,22.9,21.2,87,98090,0,1375,397,0,0,0,0,0,0,0,180,1.1,7,7,777.7,77777,9,999999999,0,0.0000,0,0,999.000,0.0,99.0
2014,3,23,5,0,?9?9?9?9E0?9?9?9?9*9?9?9?9?9*9?9*9*9?9*_?9?9*9?9*9,22.6,21.2,92,98090,0,1375,402,0,0,0,0,0,0,0,180,1.1,8,8,777.7,77777,9,999999999,0,0.0000,0,0,999.000,0.1,99.0
2014,3,23,6,0,?9?9?9?9E0?9?9?9?9*9?9?9?9?9*9?9*9*9?9*_?9?9*9?9*9,22.5,21.2,89,98090,0,1375,402,0,0,0,0,0,0,0,180,1.1,8,8,777.7,77777,9,999999999,0,0.0000,0,0,999.000,0.0,99.0
2014,3,23,7,0,?9?9?9?9E0?9?9?9?9*9?9?9?9?9*9?9*9*9?9*_?9?9*9?9*9,22.3,21.2,89,98090,196,1375,401,1,0,1,88,0,80,2,180,1.1,8,8,777.7,77777,9,999999999,0,0.0000,0,0,999.000,0.0,99.0
2014,3,23,8,0,?9?9?9?9E0?9?9?9?9*9?9?9?9?9*9?9*9*9?9*_?9?9*9?9*9,22.2,21.2,90,98090,515,1375,400,121,0,121,14472,0,13266,103,180,1.1,8,8,777.7,77777,9,999999999,0,0.0000,0,0,999.000,0.0,99.0
2014,3,23,9,0,?9?9?9?9E0?9?9?9?9*9?9?9?9?9*9?9*9*9?9*_?9?9*9?9*9,23.9,21.3,87,98090,799,1375,410,175,11,168,20978,1084,18501,92,180,1.2,8,8,777.7,77777,9,999999999,0,0.0000,0,0,999.000,0.0,99.0
2014,3,23,10,0,?9?9?9?9E0?9?9?9?9*9?9?9?9?9*9?9*9*9?9*_?9?9*9?9*9,25.0,21.5,78,98090,1029,1375,409,435,99,362,52240,9374,39769,154,180,2.1,7,7,777.7,77777,9,999999999,0,0.0000,0,0,999.000,0.0,99.0
2014,3,23,11,0,?9?9?9?9E0?9?9?9?9*9?9?9?9?9*9?9*9*9?9*_?9?9*9?9*9,25.9,21.5,75,98090,1188,1375,414,548,101,461,65815,9596,50737,170,180,3.0,7,7,777.7,77777,9,999999999,0,0.0000,0,0,999.000,0.0,99.0
2014,3,23,12,0,?9?9?9?9E0?9?9?9?9*9?9?9?9?9*9?9*9*9?9*_?9?9*9?9*9,26.6,21.6,73,98090,1265,1375,418,618,98,527,74107,9329,57997,182,180,3.7,7,7,777.7,77777,9,999999999,0,0.0000,0,0,999.000,0.0,99.0
2014,3,23,13,0,?9?9?9?9E0?9?9?9?9*9?9?9?9?9*9?9*9*9?9*_?9?9*9?9*9,27.1,21.6,71,98090,1255,1375,416,637,116,532,76495,10989,58506,185,180,4.2,6,6,777.7,77777,9,999999999,0,0.0000,0,0,999.000,0.0,99.0
2014,3,23,14,0,?9?9?9?9E0?9?9?9?9*9?9?9?9?9*9?9*9*9?9*_?9?9*9?9*9,27.4,21.7,70,98090,1160,1375,423,607,169,464,72802,16072,51042,175,180,4.4,7,7,777.7,77777,9,999999999,0,0.0000,0,0,999.000,0.0,99.0
2014,3,23,15,0,?9?9?9?9E0?9?9?9?9*9?9?9?9?9*9?9*9*9?9*_?9?9*9?9*9,27.5,21.7,70,98090,985,1375,424,527,173,404,63296,16427,44409,180,180,4.2,7,7,777.7,77777,9,999999999,0,0.0000,0,0,999.000,0.0,99.0
2014,3,23,16,0,?9?9?9?9E0?9?9?9?9*9?9?9?9?9*9?9*9*9?9*_?9?9*9?9*9,27.4,21.7,70,98090,742,1375,423,406,377,202,48703,35856,22270,120,180,4.3,7,7,777.7,77777,9,999999999,0,0.0000,0,0,999.000,0.0,99.0
2014,3,23,17,0,?9?9?9?9E0?9?9?9?9*9?9?9?9?9*9?9*9*9?9*_?9?9*9?9*9,27.0,21.6,72,98090,448,1375,421,252,422,115,30244,40122,12629,112,180,3.9,7,7,777.7,77777,9,999999999,0,0.0000,0,0,999.000,0.0,99.0
2014,3,23,18,0,?9?9?9?9E0?9?9?9?9*9?9?9?9?9*9?9*9*9?9*_?9?9*9?9*9,26.4,21.6,78,98090,125,1375,424,85,195,68,10225,18565,7476,245,180,3.1,8,8,777.7,77777,9,999999999,0,0.0000,0,0,999.000,0.2,99.0
2014,3,23,19,0,?9?9?9?9E0?9?9?9?9*9?9?9?9?9*9?9*9*9?9*_?9?9*9?9*9,26.0,21.5,79,98090,0,1375,421,0,0,0,0,0,0,0,180,2.2,8,8,777.7,77777,9,999999999,0,0.0000,0,0,999.000,0.3,99.0
2014,3,23,20,0,?9?9?9?9E0?9?9?9?9*9?9?9?9?9*9?9*9*9?9*_?9?9*9?9*9,25.6,21.5,81,98090,0,1375,419,0,0,0,0,0,0,0,180,1.2,8,8,777.7,77777,9,999999999,0,0.0000,0,0,999.000,0.0,99.0
2014,3,23,21,0,?9?9?9?9E0?9?9?9?9*9?9?9?9?9*9?9*9*9?9*_?9?9*9?9*9,25.2,21.5,82,98090,0,1375,417,0,0,0,0,0,0,0,180,1.1,8,8,777.7,77777,9,999999999,0,0.0000,0,0,999.000,0.0,99.0
2014,3,23,22,0,?9?9?9?9E0?9?9?9?9*9?9?9?9?9*9?9*9*9?9*_?9?9*9?9*9,24.7,21.4,84,98090,0,1375,414,0,0,0,0,0,0,0,180,1.1,8,8,777.7,77777,9,999999999,0,0.0000,0,0,999.000,0.1,99.0
2014,3,23,23,0,?9?9?9?9E0?9?9?9?9*9?9?9?9?9*9?9*9*9?9*_?9?9*9?9*9,24.3,21.4,94,98090,0,1375,412,0,0,0,0,0,0,0,180,1.1,8,8,777.7,77777,9,999999999,5,0.0000,0,0,999.000,5.3,99.0
2014,3,23,24,0,?9?9?9?9E0?9?9?9?9*9?9?9?9?9*9?9*9*9?9*_?9?9*9?9*9,23.9,20.9,87,98090,0,1375,409,0,0,0,0,0,0,0,180,1.5,8,8,777.7,77777,9,999999999,0,0.0000,0,0,999.000,0.1,99.0
2014,3,24,1,0,?9?9?9?9E0?9?9?9?9*9?9?9?9?9*9?9*9*9?9*_?9?9*9?9*9,23.7,20.9,88,98090,0,1375,408,0,0,0,0,0,0,0,180,1.5,8,8,777.7,77777,9,999999999,0,0.0000,0,0,999.000,0.0,99.0
2014,3,24,2,0,?9?9?9?9E0?9?9?9?9*9?9?9?9?9*9?9*9*9?9*_?9?9*9?9*9,23.5,20.9,84,98090,0,1375,407,0,0,0,0,0,0,0,180,1.5,8,8,777.7,77777,9,999999999,0,0.0000,0,0,999.000,0.0,99.0
2014,3,24,3,0,?9?9?9?9E0?9?9?9?9*9?9?9?9?9*9?9*9*9?9*_?9?9*9?9*9,23.3,20.9,91,98090,0,1375,406,0,0,0,0,0,0,0,180,1.5,8,8,777.7,77777,9,999999999,0,0.0000,0,0,999.000,0.2,99.0
2014,3,24,4,0,?9?9?9?9E0?9?9?9?9*9?9?9?9?9*9?9*9*9?9*_?9?9*9?9*9,23.1,20.9,86,98090,0,1374,405,0,0,0,0,0,0,0,180,1.5,8,8,777.7,77777,9,999999999,0,0.0000,0,0,999.000,0.0,99.0
2014,3,24,5,0,?9?9?9?9E0?9?9?9?9*9?9?9?9?9*9?9*9*9?9*_?9?9*9?9*9,22.9,20.9,88,98090,0,1374,403,0,0,0,0,0,0,0,180,1.5,8,8,777.7,77777,9,999999999,0,0.0000,0,0,999.000,0.0,99.0
2014,3,24,6,0,?9?9?9?9E0?9?9?9?9*9?9?9?9?9*9?9*9*9?9*_?9?9*9?9*9,22.7,20.9,89,98090,0,1374,403,0,0,0,0,0,0,0,180,1.5,8,8,777.7,77777,9,999999999,0,0.0000,0,0,999.000,0.0,99.0
2014,3,24,7,0,?9?9?9?9E0?9?9?9?9*9?9?9?9?9*9?9*9*9?9*_?9?9*9?9*9,22.6,20.9,89,98090,194,1374,402,1,0,1,65,0,59,1,180,1.5,8,8,777.7,77777,9,999999999,0,0.0000,0,0,999.000,0.0,99.0
2014,3,24,8,0,?9?9?9?9E0?9?9?9?9*9?9?9?9?9*9?9*9*9?9*_?9?9*9?9*9,22.5,20.9,90,98090,513,1374,401,100,0,100,12025,0,11023,86,180,1.5,8,8,777.7,77777,9,999999999,0,0.0000,0,0,999.000,0.0,99.0
2014,3,24,9,0,?9?9?9?9E0?9?9?9?9*9?9?9?9?9*9?9*9*9?9*_?9?9*9?9*9,24.5,20.8,79,98090,797,1374,412,240,23,226,28748,2190,24884,124,180,1.5,8,8,777.7,77777,9,999999999,0,0.0000,0,0,999.000,0.0,99.0
2014,3,24,10,0,?9?9?9?9E0?9?9?9?9*9?9?9?9?9*9?9*9*9?9*_?9?9*9?9*9,25.3,20.8,75,98090,1026,1374,417,363,27,343,43580,2558,37739,146,180,1.8,8,8,777.7,77777,9,999999999,0,0.0000,0,0,999.000,0.0,99.0
2014,3,24,11,0,?9?9?9?9E0?9?9?9?9*9?9?9?9?9*9?9*9*9?9*_?9?9*9?9*9,26.0,20.8,71,98090,1184,1374,421,458,50,414,54913,4761,45589,153,180,2.0,8,8,777.7,77777,9,999999999,0,0.0000,0,0,999.000,0.0,99.0
2014,3,24,12,0,?9?9?9?9E0?9?9?9?9*9?9?9?9?9*9?9*9*9?9*_?9?9*9?9*9,26.6,20.7,69,98090,1261,1374,424,515,48,471,61825,4567,51823,164,180,2.7,8,8,777.7,77777,9,999999999,0,0.0000,0,0,999.000,0.0,99.0
2014,3,24,13,0,?9?9?9?9E0?9?9?9?9*9?9?9?9?9*9?9*9*9?9*_?9?9*9?9*9,27.0,20.7,67,98090,1251,1374,426,532,57,480,63797,5380,52812,168,180,3.8,8,8,777.7,77777,9,999999999,0,0.0000,0,0,999.000,0.0,99.0
2014,3,24,14,0,?9?9?9?9E0?9?9?9?9*9?9?9?9?9*9?9*9*9?9*_?9?9*9?9*9,27.2,20.7,71,98090,1155,1374,427,506,83,436,60682,7922,47919,165,180,4.2,8,8,777.7,77777,9,999999999,0,0.0000,0,0,999.000,0.0,99.0
2014,3,24,15,0,?9?9?9?9E0?9?9?9?9*9?9?9?9?9*9?9*9*9?9*_?9?9*9?9*9,27.3,20.7,71,98090,979,1374,428,439,87,377,52709,8239,41521,169,180,4.4,8,8,777.7,77777,9,999999999,0,0.0000,0,0,999.000,0.0,99.0
2014,3,24,16,0,?9?9?9?9E0?9?9?9?9*9?9?9?9?9*9?9*9*9?9*_?9?9*9?9*9,27.2,20.7,71,98090,736,1374,427,337,157,253,40486,14895,27879,151,180,4.0,8,8,777.7,77777,9,999999999,0,0.0000,0,0,999.000,0.6,99.0
2014,3,24,17,0,?9?9?9?9E0?9?9?9?9*9?9?9?9?9*9?9*9*9?9*_?9?9*9?9*9,26.8,20.7,73,98090,443,1374,425,209,238,132,25038,22585,14552,131,180,3.5,8,8,777.7,77777,9,999999999,0,0.0000,0,0,999.000,0.0,99.0
2014,3,24,18,0,?9?9?9?9E0?9?9?9?9*9?9?9?9?9*9?9*9*9?9*_?9?9*9?9*9,26.2,20.8,75,98090,120,1374,422,69,223,51,8317,21139,5555,190,180,2.6,8,8,777.7,77777,9,999999999,0,0.0000,0,0,999.000,0.2,99.0
2014,3,24,19,0,?9?9?9?9E0?9?9?9?9*9?9?9?9?9*9?9*9*9?9*_?9?9*9?9*9,25.9,20.8,88,98090,0,1374,420,0,0,0,0,0,0,0,180,1.8,8,8,777.7,77777,9,999999999,14,0.0000,0,0,999.000,14.3,99.0
2014,3,24,20,0,?9?9?9?9E0?9?9?9?9*9?9?9?9?9*9?9*9*9?9*_?9?9*9?9*9,25.5,20.8,79,98090,0,1374,418,0,0,0,0,0,0,0,180,1.5,8,8,777.7,77777,9,999999999,0,0.0000,0,0,999.000,0.1,99.0
2014,3,24,21,0,?9?9?9?9E0?9?9?9?9*9?9?9?9?9*9?9*9*9?9*_?9?9*9?9*9,25.2,20.8,86,98090,0,1374,416,0,0,0,0,0,0,0,180,1.5,8,8,777.7,77777,9,999999999,1,0.0000,0,0,999.000,1.0,99.0
2014,3,24,22,0,?9?9?9?9E0?9?9?9?9*9?9?9?9?9*9?9*9*9?9*_?9?9*9?9*9,24.8,20.8,82,98090,0,1374,414,0,0,0,0,0,0,0,180,1.5,8,8,777.7,77777,9,999999999,0,0.0000,0,0,999.000,0.4,99.0
2014,3,24,23,0,?9?9?9?9E0?9?9?9?9*9?9?9?9?9*9?9*9*9?9*_?9?9*9?9*9,24.5,20.8,84,98090,0,1374,412,0,0,0,0,0,0,0,180,1.5,8,8,777.7,77777,9,999999999,0,0.0000,0,0,999.000,0.1,99.0
2014,3,24,24,0,?9?9?9?9E0?9?9?9?9*9?9?9?9?9*9?9*9*9?9*_?9?9*9?9*9,24.1,22.8,90,98090,0,1374,412,0,0,0,0,0,0,0,180,2.1,8,8,777.7,77777,9,999999999,0,0.0000,0,0,999.000,0.8,99.0
2014,3,25,1,0,?9?9?9?9E0?9?9?9?9*9?9?9?9?9*9?9*9*9?9*_?9?9*9?9*9,23.9,22.8,95,98090,0,1374,411,0,0,0,0,0,0,0,180,2.1,8,8,777.7,77777,9,999999999,1,0.0000,0,0,999.000,1.2,99.0
2014,3,25,2,0,?9?9?9?9E0?9?9?9?9*9?9?9?9?9*9?9*9*9?9*_?9?9*9?9*9,23.8,22.8,92,98090,0,1374,410,0,0,0,0,0,0,0,180,2.1,8,8,777.7,77777,9,999999999,0,0.0000,0,0,999.000,0.3,99.0
2014,3,25,3,0,?9?9?9?9E0?9?9?9?9*9?9?9?9?9*9?9*9*9?9*_?9?9*9?9*9,23.6,22.8,92,98090,0,1374,409,0,0,0,0,0,0,0,180,2.1,8,8,777.7,77777,9,999999999,0,0.0000,0,0,999.000,0.2,99.0
2014,3,25,4,0,?9?9?9?9E0?9?9?9?9*9?9?9?9?9*9?9*9*9?9*_?9?9*9?9*9,23.4,22.7,93,98090,0,1374,408,0,0,0,0,0,0,0,180,2.1,8,8,777.7,77777,9,999999999,0,0.0000,0,0,999.000,0.1,99.0
2014,3,25,5,0,?9?9?9?9E0?9?9?9?9*9?9?9?9?9*9?9*9*9?9*_?9?9*9?9*9,23.2,22.7,98,98090,0,1374,407,0,0,0,0,0,0,0,180,2.1,8,8,777.7,77777,9,999999999,1,0.0000,0,0,999.000,1.5,99.0
2014,3,25,6,0,?9?9?9?9E0?9?9?9?9*9?9?9?9?9*9?9*9*9?9*_?9?9*9?9*9,23.1,22.7,95,98090,0,1374,407,0,0,0,0,0,0,0,180,2.1,8,8,777.7,77777,9,999999999,0,0.0000,0,0,999.000,0.1,99.0
2014,3,25,7,0,?9?9?9?9E0?9?9?9?9*9?9?9?9?9*9?9*9*9?9*_?9?9*9?9*9,23.0,22.7,95,98090,192,1374,406,0,0,0,23,0,21,0,180,2.1,8,8,777.7,77777,9,999999999,0,0.0000,0,0,999.000,0.0,99.0
2014,3,25,8,0,?9?9?9?9E0?9?9?9?9*9?9?9?9?9*9?9*9*9?9*_?9?9*9?9*9,22.9,22.7,96,98090,510,1374,405,39,0,39,4735,0,4341,34,180,2.1,8,8,777.7,77777,9,999999999,0,0.0000,0,0,999.000,0.0,99.0
2014,3,25,9,0,?9?9?9?9E0?9?9?9?9*9?9?9?9?9*9?9*9*9?9*_?9?9*9?9*9,24.5,22.8,88,98090,794,1374,415,95,0,95,11381,0,10432,52,180,2.1,8,8,777.7,77777,9,999999999,0,0.0000,0,0,999.000,0.2,99.0
2014,3,25,10,0,?9?9?9?9E0?9?9?9?9*9?9?9?9?9*9?9*9*9?9*_?9?9*9?9*9,25.2,22.9,85,98090,1022,1374,419,147,0,147,17663,12,16181,63,180,2.1,8,8,777.7,77777,9,999999999,0,0.0000,0,0,999.000,0.1,99.0
2014,3,25,11,0,?9?9?9?9E0?9?9?9?9*9?9?9?9?9*9?9*9*9?9*_?9?9*9?9*9,25.7,22.9,83,98090,1180,1374,422,167,2,165,19992,214,18113,61,180,2.1,8,8,777.7,77777,9,999999999,0,0.0000,0,0,999.000,0.1,99.0
2014,3,25,12,0,?9?9?9?9E0?9?9?9?9*9?9?9?9?9*9?9*9*9?9*_?9?9*9?9*9,25.9,23.0,82,98090,1256,1374,423,159,1,158,19069,118,17355,55,180,2.1,8,8,777.7,77777,9,999999999,0,0.0000,0,0,999.000,0.0,99.0
2014,3,25,13,0,?9?9?9?9E0?9?9?9?9*9?9?9?9?9*9?9*9*9?9*_?9?9*9?9*9,26.3,23.0,81,98090,1246,1374,425,207,3,204,24802,273,22448,72,180,2.1,8,8,777.7,77777,9,999999999,0,0.0000,0,0,999.000,0.7,99.0
2014,3,25,14,0,?9?9?9?9E0?9?9?9?9*9?9?9?9?9*9?9*9*9?9*_?9?9*9?9*9,26.6,23.0,80,98090,1150,1374,427,213,4,209,25546,424,23006,80,180,2.1,8,8,777.7,77777,9,999999999,0,0.0000,0,0,999.000,0.4,99.0
2014,3,25,15,0,?9?9?9?9E0?9?9?9?9*9?9?9?9?9*9?9*9*9?9*_?9?9*9?9*9,26.7,23.0,84,98090,974,1374,427,175,2,174,21029,170,19137,78,180,2.1,8,8,777.7,77777,9,999999999,1,0.0000,0,0,999.000,1.9,99.0
2014,3,25,16,0,?9?9?9?9E0?9?9?9?9*9?9?9?9?9*9?9*9*9?9*_?9?9*9?9*9,26.6,23.0,84,98090,731,1374,427,139,0,139,16657,0,15269,83,180,2.1,8,8,777.7,77777,9,999999999,2,0.0000,0,0,999.000,2.5,99.0
2014,3,25,17,0,?9?9?9?9E0?9?9?9?9*9?9?9?9?9*9?9*9*9?9*_?9?9*9?9*9,26.4,23.0,85,98090,437,1374,426,98,0,98,11722,0,10745,98,180,2.1,8,8,777.7,77777,9,999999999,3,0.0000,0,0,999.000,3.4,99.0
2014,3,25,18,0,?9?9?9?9E0?9?9?9?9*9?9?9?9?9*9?9*9*9?9*_?9?9*9?9*9,25.9,23.0,91,98090,115,1374,423,27,0,27,3204,0,2937,105,180,2.1,8,8,777.7,77777,9,999999999,5,0.0000,0,0,999.000,5.6,99.0
2014,3,25,19,0,?9?9?9?9E0?9?9?9?9*9?9?9?9?9*9?9*9*9?9*_?9?9*9?9*9,25.8,22.9,92,98090,0,1374,422,0,0,0,0,0,0,0,180,2.1,8,8,777.7,77777,9,999999999,58,0.0000,0,0,999.000,58.9,99.0
2014,3,25,20,0,?9?9?9?9E0?9?9?9?9*9?9?9?9?9*9?9*9*9?9*_?9?9*9?9*9,25.6,22.9,84,98090,0,1374,421,0,0,0,0,0,0,0,180,2.1,8,8,777.7,77777,9,999999999,0,0.0000,0,0,999.000,0.4,99.0
2014,3,25,21,0,?9?9?9?9E0?9?9?9?9*9?9?9?9?9*9?9*9*9?9*_?9?9*9?9*9,25.5,22.9,80,98090,0,1374,420,0,0,0,0,0,0,0,180,2.1,8,8,777.7,77777,9,999999999,0,0.0000,0,0,999.000,0.0,99.0
2014,3,25,22,0,?9?9?9?9E0?9?9?9?9*9?9?9?9?9*9?9*9*9?9*_?9?9*9?9*9,25.3,22.9,85,98090,0,1374,419,0,0,0,0,0,0,0,180,2.1,8,8,777.7,77777,9,999999999,0,0.0000,0,0,999.000,0.6,99.0
2014,3,25,23,0,?9?9?9?9E0?9?9?9?9*9?9?9?9?9*9?9*9*9?9*_?9?9*9?9*9,25.1,22.9,86,98090,0,1374,418,0,0,0,0,0,0,0,180,2.1,8,8,777.7,77777,9,999999999,0,0.0000,0,0,999.000,1.0,99.0
2014,3,25,24,0,?9?9?9?9E0?9?9?9?9*9?9?9?9?9*9?9*9*9?9*_?9?9*9?9*9,25.0,22.8,86,98090,0,1374,417,0,0,0,0,0,0,0,180,1.9,8,8,777.7,77777,9,999999999,0,0.0000,0,0,999.000,0.1,99.0
2014,3,26,1,0,?9?9?9?9E0?9?9?9?9*9?9?9?9?9*9?9*9*9?9*_?9?9*9?9*9,24.9,22.8,86,98090,0,1374,417,0,0,0,0,0,0,0,180,1.9,8,8,777.7,77777,9,999999999,0,0.0000,0,0,999.000,0.3,99.0
2014,3,26,2,0,?9?9?9?9E0?9?9?9?9*9?9?9?9?9*9?9*9*9?9*_?9?9*9?9*9,24.8,22.8,90,98090,0,1374,417,0,0,0,0,0,0,0,180,1.9,8,8,777.7,77777,9,999999999,1,0.0000,0,0,999.000,1.2,99.0
2014,3,26,3,0,?9?9?9?9E0?9?9?9?9*9?9?9?9?9*9?9*9*9?9*_?9?9*9?9*9,24.8,22.8,86,98090,0,1374,416,0,0,0,0,0,0,0,180,1.9,8,8,777.7,77777,9,999999999,0,0.0000,0,0,999.000,0.2,99.0
2014,3,26,4,0,?9?9?9?9E0?9?9?9?9*9?9?9?9?9*9?9*9*9?9*_?9?9*9?9*9,24.7,22.8,87,98090,0,1373,416,0,0,0,0,0,0,0,180,1.9,8,8,777.7,77777,9,999999999,0,0.0000,0,0,999.000,0.5,99.0
2014,3,26,5,0,?9?9?9?9E0?9?9?9?9*9?9?9?9?9*9?9*9*9?9*_?9?9*9?9*9,24.6,22.7,87,98090,0,1373,415,0,0,0,0,0,0,0,180,1.9,8,8,777.7,77777,9,999999999,0,0.0000,0,0,999.000,0.1,99.0
2014,3,26,6,0,?9?9?9?9E0?9?9?9?9*9?9?9?9?9*9?9*9*9?9*_?9?9*9?9*9,24.5,22.7,87,98090,0,1373,415,0,0,0,0,0,0,0,180,1.9,8,8,777.7,77777,9,999999999,0,0.0000,0,0,999.000,0.2,99.0
2014,3,26,7,0,?9?9?9?9E0?9?9?9?9*9?9?9?9?9*9?9*9*9?9*_?9?9*9?9*9,24.5,22.7,87,98090,191,1373,414,1,0,1,61,0,56,1,180,1.9,8,8,777.7,77777,9,999999999,0,0.0000,0,0,999.000,0.0,99.0
2014,3,26,8,0,?9?9?9?9E0?9?9?9?9*9?9?9?9?9*9?9*9*9?9*_?9?9*9?9*9,24.4,22.7,87,98090,508,1373,414,115,0,115,13763,0,12616,99,180,1.9,8,8,777.7,77777,9,999999999,0,0.0000,0,0,999.000,0.0,99.0
2014,3,26,9,0,?9?9?9?9E0?9?9?9?9*9?9?9?9?9*9?9*9*9?9*_?9?9*9?9*9,26.4,23.2,79,98090,791,1373,419,276,43,251,33125,4090,27638,139,180,1.9,7,7,777.7,77777,9,999999999,0,0.0000,0,0,999.000,0.0,99.0
2014,3,26,10,0,?9?9?9?9E0?9?9?9?9*9?9?9?9?9*9?9*9*9?9*_?9?9*9?9*9,27.1,23.4,81,98090,1019,1373,424,419,74,364,50287,7016,40069,156,180,1.9,7,7,777.7,77777,9,999999999,0,0.0000,0,0,999.000,0.1,99.0
2014,3,26,11,0,?9?9?9?9E0?9?9?9?9*9?9?9?9?9*9?9*9*9?9*_?9?9*9?9*9,27.8,23.6,76,98090,1176,1373,428,528,91,451,63380,8609,49558,167,180,1.9,7,7,777.7,77777,9,999999999,0,0.0000,0,0,999.000,0.0,99.0
2014,3,26,12,0,?9?9?9?9E0?9?9?9?9*9?9?9?9?9*9?9*9*9?9*_?9?9*9?9*9,28.3,23.7,75,98090,1252,1373,431,594,88,514,71339,8382,56543,179,180,2.0,7,7,777.7,77777,9,999999999,0,0.0000,0,0,999.000,0.0,99.0
2014,3,26,13,0,?9?9?9?9E0?9?9?9?9*9?9?9?9?9*9?9*9*9?9*_?9?9*9?9*9,28.7,23.8,74,98090,1241,1373,433,613,179,452,73566,16968,49671,159,180,2.5,7,7,777.7,77777,9,999999999,0,0.0000,0,0,999.000,0.0,99.0
2014,3,26,14,0,?9?9?9?9E0?9?9?9?9*9?9?9?9?9*9?9*9*9?9*_?9?9*9?9*9,28.7,23.8,77,98090,1145,1373,440,432,57,385,51858,5416,42308,147,180,2.7,8,8,777.7,77777,9,999999999,0,0.0000,0,0,999.000,0.0,99.0
2014,3,26,15,0,?9?9?9?9E0?9?9?9?9*9?9?9?9?9*9?9*9*9?9*_?9?9*9?9*9,28.8,23.8,77,98090,969,1373,434,505,236,339,60596,22374,37270,153,180,3.0,7,7,777.7,77777,9,999999999,0,0.0000,0,0,999.000,0.0,99.0
2014,3,26,16,0,?9?9?9?9E0?9?9?9?9*9?9?9?9?9*9?9*9*9?9*_?9?9*9?9*9,28.7,23.8,74,98090,726,1373,433,370,258,233,44366,24519,25676,141,180,3.4,7,7,777.7,77777,9,999999999,0,0.0000,0,0,999.000,0.0,99.0
2014,3,26,17,0,?9?9?9?9E0?9?9?9?9*9?9?9?9?9*9?9*9*9?9*_?9?9*9?9*9,28.4,23.7,75,98090,432,1373,431,273,515,112,32806,48971,12280,113,180,3.3,7,7,777.7,77777,9,999999999,0,0.0000,0,0,999.000,0.0,99.0
2014,3,26,18,0,?9?9?9?9E0?9?9?9?9*9?9?9?9?9*9?9*9*9?9*_?9?9*9?9*9,27.9,23.6,79,98090,110,1373,435,80,223,63,9630,21228,6934,260,180,2.2,8,8,777.7,77777,9,999999999,0,0.0000,0,0,999.000,0.1,99.0
2014,3,26,19,0,?9?9?9?9E0?9?9?9?9*9?9?9?9?9*9?9*9*9?9*_?9?9*9?9*9,27.5,23.5,80,98090,0,1373,433,0,0,0,0,0,0,0,180,1.9,8,8,777.7,77777,9,999999999,0,0.0000,0,0,999.000,0.8,99.0
2014,3,26,20,0,?9?9?9?9E0?9?9?9?9*9?9?9?9?9*9?9*9*9?9*_?9?9*9?9*9,27.1,23.4,87,98090,0,1373,430,0,0,0,0,0,0,0,180,1.9,8,8,777.7,77777,9,999999999,24,0.0000,0,0,999.000,24.4,99.0
2014,3,26,21,0,?9?9?9?9E0?9?9?9?9*9?9?9?9?9*9?9*9*9?9*_?9?9*9?9*9,26.7,23.3,82,98090,0,1373,428,0,0,0,0,0,0,0,180,1.9,8,8,777.7,77777,9,999999999,0,0.0000,0,0,999.000,0.6,99.0
2014,3,26,22,0,?9?9?9?9E0?9?9?9?9*9?9?9?9?9*9?9*9*9?9*_?9?9*9?9*9,26.4,23.2,86,98090,0,1373,426,0,0,0,0,0,0,0,180,1.9,8,8,777.7,77777,9,999999999,2,0.0000,0,0,999.000,2.0,99.0
2014,3,26,23,0,?9?9?9?9E0?9?9?9?9*9?9?9?9?9*9?9*9*9?9*_?9?9*9?9*9,26.0,23.1,83,98090,0,1373,423,0,0,0,0,0,0,0,180,1.9,8,8,777.7,77777,9,999999999,0,0.0000,0,0,999.000,0.4,99.0
2014,3,26,24,0,?9?9?9?9E0?9?9?9?9*9?9?9?9?9*9?9*9*9?9*_?9?9*9?9*9,25.6,22.6,86,98090,0,1373,421,0,0,0,0,0,0,0,180,1.1,8,8,777.7,77777,9,999999999,0,0.0000,0,0,999.000,0.0,99.0
2014,3,27,1,0,?9?9?9?9E0?9?9?9?9*9?9?9?9?9*9?9*9*9?9*_?9?9*9?9*9,25.4,22.6,87,98090,0,1373,419,0,0,0,0,0,0,0,180,1.1,8,8,777.7,77777,9,999999999,0,0.0000,0,0,999.000,0.0,99.0
2014,3,27,2,0,?9?9?9?9E0?9?9?9?9*9?9?9?9?9*9?9*9*9?9*_?9?9*9?9*9,25.2,22.6,83,98090,0,1373,418,0,0,0,0,0,0,0,180,1.1,8,8,777.7,77777,9,999999999,0,0.0000,0,0,999.000,0.0,99.0
2014,3,27,3,0,?9?9?9?9E0?9?9?9?9*9?9?9?9?9*9?9*9*9?9*_?9?9*9?9*9,25.0,22.6,88,98090,0,1373,417,0,0,0,0,0,0,0,180,1.1,8,8,777.7,77777,9,999999999,0,0.0000,0,0,999.000,0.3,99.0
2014,3,27,4,0,?9?9?9?9E0?9?9?9?9*9?9?9?9?9*9?9*9*9?9*_?9?9*9?9*9,24.8,22.5,89,98090,0,1372,416,0,0,0,0,0,0,0,180,1.1,8,8,777.7,77777,9,999999999,0,0.0000,0,0,999.000,0.1,99.0
2014,3,27,5,0,?9?9?9?9E0?9?9?9?9*9?9?9?9?9*9?9*9*9?9*_?9?9*9?9*9,24.6,22.5,90,98090,0,1372,415,0,0,0,0,0,0,0,180,1.1,8,8,777.7,77777,9,999999999,0,0.0000,0,0,999.000,0.0,99.0
2014,3,27,6,0,?9?9?9?9E0?9?9?9?9*9?9?9?9?9*9?9*9*9?9*_?9?9*9?9*9,24.5,22.5,86,98090,0,1372,414,0,0,0,0,0,0,0,180,1.1,8,8,777.7,77777,9,999999999,0,0.0000,0,0,999.000,0.0,99.0
2014,3,27,7,0,?9?9?9?9E0?9?9?9?9*9?9?9?9?9*9?9*9*9?9*_?9?9*9?9*9,24.3,22.5,86,98090,189,1372,413,1,0,1,61,0,56,1,180,1.1,8,8,777.7,77777,9,999999999,0,0.0000,0,0,999.000,0.0,99.0
2014,3,27,8,0,?9?9?9?9E0?9?9?9?9*9?9?9?9?9*9?9*9*9?9*_?9?9*9?9*9,24.2,22.5,87,98090,506,1372,413,66,0,66,7966,0,7302,57,180,1.1,8,8,777.7,77777,9,999999999,0,0.0000,0,0,999.000,0.0,99.0
2014,3,27,9,0,?9?9?9?9E0?9?9?9?9*9?9?9?9?9*9?9*9*9?9*_?9?9*9?9*9,25.3,22.6,82,98090,788,1372,419,122,0,122,14638,0,13418,68,180,1.1,8,8,777.7,77777,9,999999999,0,0.0000,0,0,999.000,0.0,99.0
2014,3,27,10,0,?9?9?9?9E0?9?9?9?9*9?9?9?9?9*9?9*9*9?9*_?9?9*9?9*9,26.8,22.8,77,98090,1016,1372,416,481,164,359,57694,15583,39533,155,180,1.1,6,6,777.7,77777,9,999999999,0,0.0000,0,0,999.000,0.0,99.0
2014,3,27,11,0,?9?9?9?9E0?9?9?9?9*9?9?9?9?9*9?9*9*9?9*_?9?9*9?9*9,27.9,23.0,73,98090,1172,1372,422,606,159,470,72726,15143,51685,175,180,2.1,6,6,777.7,77777,9,999999999,0,0.0000,0,0,999.000,0.0,99.0
2014,3,27,12,0,?9?9?9?9E0?9?9?9?9*9?9?9?9?9*9?9*9*9?9*_?9?9*9?9*9,28.8,23.1,70,98090,1248,1372,424,682,155,541,81848,14724,59524,189,180,2.9,5,5,777.7,77777,9,999999999,0,0.0000,0,0,999.000,0.0,99.0
2014,3,27,13,0,?9?9?9?9E0?9?9?9?9*9?9?9?9?9*9?9*9*9?9*_?9?9*9?9*9,29.4,23.1,69,98090,1237,1372,427,703,303,430,84376,28798,47293,152,180,3.5,5,5,777.7,77777,9,999999999,0,0.0000,0,0,999.000,0.0,99.0
2014,3,27,14,0,?9?9?9?9E0?9?9?9?9*9?9?9?9?9*9?9*9*9?9*_?9?9*9?9*9,29.7,23.2,67,98090,1140,1372,429,668,361,368,80119,34295,40464,141,180,4.4,5,5,777.7,77777,9,999999999,0,0.0000,0,0,999.000,0.0,99.0
2014,3,27,15,0,?9?9?9?9E0?9?9?9?9*9?9?9?9?9*9?9*9*9?9*_?9?9*9?9*9,29.8,23.2,67,98090,963,1372,434,545,322,319,65414,30634,35063,145,180,4.7,6,6,777.7,77777,9,999999999,0,0.0000,0,0,999.000,0.0,99.0
2014,3,27,16,0,?9?9?9?9E0?9?9?9?9*9?9?9?9?9*9?9*9*9?9*_?9?9*9?9*9,29.9,23.2,67,98090,720,1372,424,530,746,139,63598,70896,15245,84,180,4.1,3,3,777.7,77777,9,999999999,0,0.0000,0,0,999.000,0.0,99.0
2014,3,27,17,0,?9?9?9?9E0?9?9?9?9*9?9?9?9?9*9?9*9*9?9*_?9?9*9?9*9,29.5,23.2,68,98090,427,1372,428,311,645,111,37342,61314,12218,114,180,4.4,5,5,777.7,77777,9,999999999,0,0.0000,0,0,999.000,0.0,99.0
2014,3,27,18,0,?9?9?9?9E0?9?9?9?9*9?9?9?9?9*9?9*9*9?9*_?9?9*9?9*9,28.8,23.1,75,98090,105,1372,439,50,291,29,6004,27653,3156,125,180,3.4,8,8,777.7,77777,9,999999999,0,0.0000,0,0,999.000,0.1,99.0
2014,3,27,19,0,?9?9?9?9E0?9?9?9?9*9?9?9?9?9*9?9*9*9?9*_?9?9*9?9*9,28.3,23.0,85,98090,0,1372,437,0,0,0,0,0,0,0,180,3.3,8,8,777.7,77777,9,999999999,5,0.0000,0,0,999.000,5.3,99.0
2014,3,27,20,0,?9?9?9?9E0?9?9?9?9*9?9?9?9?9*9?9*9*9?9*_?9?9*9?9*9,27.8,22.9,78,98090,0,1372,427,0,0,0,0,0,0,0,180,2.7,7,7,777.7,77777,9,999999999,0,0.0000,0,0,999.000,0.2,99.0
2014,3,27,21,0,?9?9?9?9E0?9?9?9?9*9?9?9?9?9*9?9*9*9?9*_?9?9*9?9*9,27.4,22.9,75,98090,0,1372,424,0,0,0,0,0,0,0,180,1.8,7,7,777.7,77777,9,999999999,0,0.0000,0,0,999.000,0.0,99.0
2014,3,27,22,0,?9?9?9?9E0?9?9?9?9*9?9?9?9?9*9?9*9*9?9*_?9?9*9?9*9,26.9,22.8,77,98090,0,1372,422,0,0,0,0,0,0,0,180,1.4,7,7,777.7,77777,9,999999999,0,0.0000,0,0,999.000,0.0,99.0
2014,3,27,23,0,?9?9?9?9E0?9?9?9?9*9?9?9?9?9*9?9*9*9?9*_?9?9*9?9*9,26.4,22.8,78,98090,0,1372,414,0,0,0,0,0,0,0,180,1.1,6,6,777.7,77777,9,999999999,0,0.0000,0,0,999.000,0.0,99.0
2014,3,27,24,0,?9?9?9?9E0?9?9?9?9*9?9?9?9?9*9?9*9*9?9*_?9?9*9?9*9,26.0,22.2,78,98090,0,1372,411,0,0,0,0,0,0,0,180,1.1,6,6,777.7,77777,9,999999999,0,0.0000,0,0,999.000,0.0,99.0
2014,3,28,1,0,?9?9?9?9E0?9?9?9?9*9?9?9?9?9*9?9*9*9?9*_?9?9*9?9*9,25.7,22.2,79,98090,0,1372,409,0,0,0,0,0,0,0,180,1.1,6,6,777.7,77777,9,999999999,0,0.0000,0,0,999.000,0.0,99.0
2014,3,28,2,0,?9?9?9?9E0?9?9?9?9*9?9?9?9?9*9?9*9*9?9*_?9?9*9?9*9,25.5,22.2,80,98090,0,1372,405,0,0,0,0,0,0,0,180,1.1,5,5,777.7,77777,9,999999999,0,0.0000,0,0,999.000,0.0,99.0
2014,3,28,3,0,?9?9?9?9E0?9?9?9?9*9?9?9?9?9*9?9*9*9?9*_?9?9*9?9*9,25.2,22.1,81,98090,0,1372,403,0,0,0,0,0,0,0,180,1.1,5,5,777.7,77777,9,999999999,0,0.0000,0,0,999.000,0.0,99.0
2014,3,28,4,0,?9?9?9?9E0?9?9?9?9*9?9?9?9?9*9?9*9*9?9*_?9?9*9?9*9,25.0,22.1,82,98090,0,1371,399,0,0,0,0,0,0,0,180,1.1,4,4,777.7,77777,9,999999999,0,0.0000,0,0,999.000,0.0,99.0
2014,3,28,5,0,?9?9?9?9E0?9?9?9?9*9?9?9?9?9*9?9*9*9?9*_?9?9*9?9*9,24.8,22.1,83,98090,0,1371,398,0,0,0,0,0,0,0,180,1.1,4,4,777.7,77777,9,999999999,0,0.0000,0,0,999.000,0.0,99.0
2014,3,28,6,0,?9?9?9?9E0?9?9?9?9*9?9?9?9?9*9?9*9*9?9*_?9?9*9?9*9,24.6,22.0,84,98090,0,1371,397,0,0,0,0,0,0,0,180,1.1,4,4,777.7,77777,9,999999999,0,0.0000,0,0,999.000,0.0,99.0
2014,3,28,7,0,?9?9?9?9E0?9?9?9?9*9?9?9?9?9*9?9*9*9?9*_?9?9*9?9*9,24.4,22.0,84,98090,187,1371,393,5,0,5,590,0,541,12,180,1.1,3,3,777.7,77777,9,999999999,0,0.0000,0,0,999.000,0.0,99.0
2014,3,28,8,0,?9?9?9?9E0?9?9?9?9*9?9?9?9?9*9?9*9*9?9*_?9?9*9?9*9,24.3,22.0,85,98090,503,1371,392,200,143,148,24041,13594,16270,128,180,1.1,3,3,777.7,77777,9,999999999,0,0.0000,0,0,999.000,0.0,99.0
2014,3,28,9,0,?9?9?9?9E0?9?9?9?9*9?9?9?9?9*9?9*9*9?9*_?9?9*9?9*9,27.5,22.5,73,98090,785,1371,393,456,409,222,54746,38865,24426,123,180,1.1,0,0,777.7,77777,9,999999999,0,0.0000,0,0,999.000,0.0,99.0
2014,3,28,10,0,?9?9?9?9E0?9?9?9?9*9?9?9?9?9*9?9*9*9?9*_?9?9*9?9*9,28.9,22.6,68,98090,1012,1371,400,741,741,194,88860,70374,21316,84,180,2.0,0,0,777.7,77777,9,999999999,0,0.0000,0,0,999.000,0.0,99.0
2014,3,28,11,0,?9?9?9?9E0?9?9?9?9*9?9?9?9?9*9?9*9*9?9*_?9?9*9?9*9,29.3,22.7,67,98090,1169,1371,423,658,280,419,78907,26604,46084,157,180,2.2,4,4,777.7,77777,9,999999999,0,0.0000,0,0,999.000,0.0,99.0
2014,3,28,12,0,?9?9?9?9E0?9?9?9?9*9?9?9?9?9*9?9*9*9?9*_?9?9*9?9*9,30.0,22.8,65,98090,1243,1371,406,848,576,326,101800,54761,35825,114,180,3.0,0,0,777.7,77777,9,999999999,0,0.0000,0,0,999.000,0.0,99.0
2014,3,28,13,0,?9?9?9?9E0?9?9?9?9*9?9?9?9?9*9?9*9*9?9*_?9?9*9?9*9,30.1,22.8,65,98090,1232,1371,435,636,217,441,76351,20621,48541,156,180,3.2,6,6,777.7,77777,9,999999999,0,0.0000,0,0,999.000,0.0,99.0
2014,3,28,14,0,?9?9?9?9E0?9?9?9?9*9?9?9?9?9*9?9*9*9?9*_?9?9*9?9*9,29.8,22.8,70,98090,1134,1371,445,489,111,397,58685,10589,43652,153,180,4.3,8,8,777.7,77777,9,999999999,0,0.0000,0,0,999.000,0.2,99.0
2014,3,28,15,0,?9?9?9?9E0?9?9?9?9*9?9?9?9?9*9?9*9*9?9*_?9?9*9?9*9,29.6,22.7,71,98090,958,1371,444,444,158,334,53296,15024,36703,152,180,4.9,8,8,777.7,77777,9,999999999,0,0.0000,0,0,999.000,0.1,99.0
2014,3,28,16,0,?9?9?9?9E0?9?9?9?9*9?9?9?9?9*9?9*9*9?9*_?9?9*9?9*9,28.8,22.6,73,98090,715,1371,439,136,0,136,16272,0,14916,83,180,4.6,8,8,777.7,77777,9,999999999,0,0.0000,0,0,999.000,0.0,99.0
2014,3,28,17,0,?9?9?9?9E0?9?9?9?9*9?9?9?9?9*9?9*9*9?9*_?9?9*9?9*9,28.4,22.6,70,98090,421,1371,429,259,438,125,31126,41613,13773,130,180,4.2,7,7,777.7,77777,9,999999999,0,0.0000,0,0,999.000,0.0,99.0
2014,3,28,18,0,?9?9?9?9E0?9?9?9?9*9?9?9?9?9*9?9*9*9?9*_?9?9*9?9*9,27.7,22.5,77,98090,100,1371,433,80,212,65,9584,20160,7161,298,180,3.5,8,8,777.7,77777,9,999999999,0,0.0000,0,0,999.000,0.0,99.0
2014,3,28,19,0,?9?9?9?9E0?9?9?9?9*9?9?9?9?9*9?9*9*9?9*_?9?9*9?9*9,27.3,22.4,78,98090,0,1371,430,0,0,0,0,0,0,0,180,2.7,8,8,777.7,77777,9,999999999,0,0.0000,0,0,999.000,0.1,99.0
2014,3,28,20,0,?9?9?9?9E0?9?9?9?9*9?9?9?9?9*9?9*9*9?9*_?9?9*9?9*9,26.8,22.3,80,98090,0,1371,427,0,0,0,0,0,0,0,180,2.2,8,8,777.7,77777,9,999999999,0,0.0000,0,0,999.000,0.1,99.0
2014,3,28,21,0,?9?9?9?9E0?9?9?9?9*9?9?9?9?9*9?9*9*9?9*_?9?9*9?9*9,26.3,22.3,87,98090,0,1371,424,0,0,0,0,0,0,0,180,1.1,8,8,777.7,77777,9,999999999,4,0.0000,0,0,999.000,4.4,99.0
2014,3,28,22,0,?9?9?9?9E0?9?9?9?9*9?9?9?9?9*9?9*9*9?9*_?9?9*9?9*9,25.8,22.2,84,98090,0,1371,415,0,0,0,0,0,0,0,180,1.1,7,7,777.7,77777,9,999999999,0,0.0000,0,0,999.000,0.0,99.0
2014,3,28,23,0,?9?9?9?9E0?9?9?9?9*9?9?9?9?9*9?9*9*9?9*_?9?9*9?9*9,25.3,22.1,81,98090,0,1371,412,0,0,0,0,0,0,0,180,1.1,7,7,777.7,77777,9,999999999,0,0.0000,0,0,999.000,0.0,99.0
2014,3,28,24,0,?9?9?9?9E0?9?9?9?9*9?9?9?9?9*9?9*9*9?9*_?9?9*9?9*9,24.8,21.9,87,98090,0,1371,409,0,0,0,0,0,0,0,180,1.9,7,7,777.7,77777,9,999999999,0,0.0000,0,0,999.000,0.1,99.0
2014,3,29,1,0,?9?9?9?9E0?9?9?9?9*9?9?9?9?9*9?9*9*9?9*_?9?9*9?9*9,24.6,21.9,88,98090,0,1371,408,0,0,0,0,0,0,0,180,1.9,7,7,777.7,77777,9,999999999,0,0.0000,0,0,999.000,0.3,99.0
2014,3,29,2,0,?9?9?9?9E0?9?9?9?9*9?9?9?9?9*9?9*9*9?9*_?9?9*9?9*9,24.4,21.9,85,98090,0,1371,406,0,0,0,0,0,0,0,180,1.9,7,7,777.7,77777,9,999999999,0,0.0000,0,0,999.000,0.0,99.0
2014,3,29,3,0,?9?9?9?9E0?9?9?9?9*9?9?9?9?9*9?9*9*9?9*_?9?9*9?9*9,24.1,22.0,86,98090,0,1371,405,0,0,0,0,0,0,0,180,1.9,7,7,777.7,77777,9,999999999,0,0.0000,0,0,999.000,0.0,99.0
2014,3,29,4,0,?9?9?9?9E0?9?9?9?9*9?9?9?9?9*9?9*9*9?9*_?9?9*9?9*9,23.9,22.0,87,98090,0,1370,404,0,0,0,0,0,0,0,180,1.9,7,7,777.7,77777,9,999999999,0,0.0000,0,0,999.000,0.0,99.0
2014,3,29,5,0,?9?9?9?9E0?9?9?9?9*9?9?9?9?9*9?9*9*9?9*_?9?9*9?9*9,23.6,22.0,89,98090,0,1370,398,0,0,0,0,0,0,0,180,1.9,6,6,777.7,77777,9,999999999,0,0.0000,0,0,999.000,0.0,99.0
2014,3,29,6,0,?9?9?9?9E0?9?9?9?9*9?9?9?9?9*9?9*9*9?9*_?9?9*9?9*9,23.4,22.1,90,98090,0,1370,397,0,0,0,0,0,0,0,180,1.9,6,6,777.7,77777,9,999999999,0,0.0000,0,0,999.000,0.0,99.0
2014,3,29,7,0,?9?9?9?9E0?9?9?9?9*9?9?9?9?9*9?9*9*9?9*_?9?9*9?9*9,23.3,22.1,91,98090,185,1370,396,1,0,1,82,0,75,2,180,1.9,6,6,777.7,77777,9,999999999,0,0.0000,0,0,999.000,0.0,99.0
2014,3,29,8,0,?9?9?9?9E0?9?9?9?9*9?9?9?9?9*9?9*9*9?9*_?9?9*9?9*9,23.1,22.1,92,98090,501,1370,395,167,67,142,20006,6325,15667,124,180,1.9,6,6,777.7,77777,9,999999999,0,0.0000,0,0,999.000,0.0,99.0
2014,3,29,9,0,?9?9?9?9E0?9?9?9?9*9?9?9?9?9*9?9*9*9?9*_?9?9*9?9*9,26.3,21.6,74,98090,782,1370,402,403,255,258,48418,24250,28360,144,180,1.9,3,3,777.7,77777,9,999999999,0,0.0000,0,0,999.000,0.0,99.0
2014,3,29,10,0,?9?9?9?9E0?9?9?9?9*9?9?9?9?9*9?9*9*9?9*_?9?9*9?9*9,27.6,21.5,68,98090,1009,1370,399,609,414,304,73024,39307,33442,131,180,1.9,1,1,777.7,77777,9,999999999,0,0.0000,0,0,999.000,0.0,99.0
2014,3,29,11,0,?9?9?9?9E0?9?9?9?9*9?9?9?9?9*9?9*9*9?9*_?9?9*9?9*9,28.6,21.3,64,98090,1165,1370,397,767,532,315,92006,50526,34630,118,180,1.9,0,0,777.7,77777,9,999999999,0,0.0000,0,0,999.000,0.0,99.0
2014,3,29,12,0,?9?9?9?9E0?9?9?9?9*9?9?9?9?9*9?9*9*9?9*_?9?9*9?9*9,29.5,21.1,60,98090,1239,1370,401,864,610,313,103729,57969,34407,110,180,2.0,0,0,777.7,77777,9,999999999,0,0.0000,0,0,999.000,0.0,99.0
2014,3,29,13,0,?9?9?9?9E0?9?9?9?9*9?9?9?9?9*9?9*9*9?9*_?9?9*9?9*9,30.1,21.1,58,98090,1227,1370,404,882,694,261,105802,65903,28673,93,180,2.5,0,0,777.7,77777,9,999999999,0,0.0000,0,0,999.000,0.0,99.0
2014,3,29,14,0,?9?9?9?9E0?9?9?9?9*9?9?9?9?9*9?9*9*9?9*_?9?9*9?9*9,30.4,21.0,57,98090,1129,1370,414,816,766,185,97933,72744,20375,72,180,3.2,1,1,777.7,77777,9,999999999,0,0.0000,0,0,999.000,0.0,99.0
2014,3,29,15,0,?9?9?9?9E0?9?9?9?9*9?9?9?9?9*9?9*9*9?9*_?9?9*9?9*9,30.5,21.0,57,98090,953,1370,420,702,850,111,84210,80729,12231,51,180,3.4,2,2,777.7,77777,9,999999999,0,0.0000,0,0,999.000,0.0,99.0
2014,3,29,16,0,?9?9?9?9E0?9?9?9?9*9?9?9?9?9*9?9*9*9?9*_?9?9*9?9*9,30.2,21.0,57,98090,709,1370,423,543,775,143,65180,73585,15687,88,180,3.2,3,3,777.7,77777,9,999999999,0,0.0000,0,0,999.000,0.0,99.0
2014,3,29,17,0,?9?9?9?9E0?9?9?9?9*9?9?9?9?9*9?9*9*9?9*_?9?9*9?9*9,29.7,21.1,60,98090,416,1370,423,333,481,188,40012,45720,20660,198,180,2.8,4,4,777.7,77777,9,999999999,0,0.0000,0,0,999.000,0.0,99.0
2014,3,29,18,0,?9?9?9?9E0?9?9?9?9*9?9?9?9?9*9?9*9*9?9*_?9?9*9?9*9,28.8,21.3,68,98090,95,1370,437,99,230,84,11896,21864,9237,406,180,2.3,8,8,777.7,77777,9,999999999,0,0.0000,0,0,999.000,0.0,99.0
2014,3,29,19,0,?9?9?9?9E0?9?9?9?9*9?9?9?9?9*9?9*9*9?9*_?9?9*9?9*9,28.1,21.4,71,98090,0,1370,433,0,0,0,0,0,0,0,180,1.9,8,8,777.7,77777,9,999999999,0,0.0000,0,0,999.000,0.0,99.0
2014,3,29,20,0,?9?9?9?9E0?9?9?9?9*9?9?9?9?9*9?9*9*9?9*_?9?9*9?9*9,27.4,21.5,74,98090,0,1370,429,0,0,0,0,0,0,0,180,1.9,8,8,777.7,77777,9,999999999,0,0.0000,0,0,999.000,0.0,99.0
2014,3,29,21,0,?9?9?9?9E0?9?9?9?9*9?9?9?9?9*9?9*9*9?9*_?9?9*9?9*9,26.7,21.6,77,98090,0,1370,425,0,0,0,0,0,0,0,180,1.9,8,8,777.7,77777,9,999999999,0,0.0000,0,0,999.000,0.1,99.0
2014,3,29,22,0,?9?9?9?9E0?9?9?9?9*9?9?9?9?9*9?9*9*9?9*_?9?9*9?9*9,26.0,21.7,80,98090,0,1370,422,0,0,0,0,0,0,0,180,1.9,8,8,777.7,77777,9,999999999,0,0.0000,0,0,999.000,0.2,99.0
2014,3,29,23,0,?9?9?9?9E0?9?9?9?9*9?9?9?9?9*9?9*9*9?9*_?9?9*9?9*9,25.3,21.8,94,98090,0,1370,418,0,0,0,0,0,0,0,180,1.9,8,8,777.7,77777,9,999999999,6,0.0000,0,0,999.000,6.2,99.0
2014,3,29,24,0,?9?9?9?9E0?9?9?9?9*9?9?9?9?9*9?9*9*9?9*_?9?9*9?9*9,24.6,22.0,87,98090,0,1370,414,0,0,0,0,0,0,0,180,2.1,8,8,777.7,77777,9,999999999,0,0.0000,0,0,999.000,0.4,99.0
2014,3,30,1,0,?9?9?9?9E0?9?9?9?9*9?9?9?9?9*9?9*9*9?9*_?9?9*9?9*9,24.3,21.9,94,98090,0,1370,412,0,0,0,0,0,0,0,180,2.1,8,8,777.7,77777,9,999999999,18,0.0000,0,0,999.000,18.8,99.0
2014,3,30,2,0,?9?9?9?9E0?9?9?9?9*9?9?9?9?9*9?9*9*9?9*_?9?9*9?9*9,23.9,21.8,91,98090,0,1370,410,0,0,0,0,0,0,0,180,2.1,8,8,777.7,77777,9,999999999,1,0.0000,0,0,999.000,1.4,99.0
2014,3,30,3,0,?9?9?9?9E0?9?9?9?9*9?9?9?9?9*9?9*9*9?9*_?9?9*9?9*9,23.6,21.7,89,98090,0,1370,408,0,0,0,0,0,0,0,180,2.1,8,8,777.7,77777,9,999999999,0,0.0000,0,0,999.000,0.0,99.0
2014,3,30,4,0,?9?9?9?9E0?9?9?9?9*9?9?9?9?9*9?9*9*9?9*_?9?9*9?9*9,23.2,21.5,87,98090,0,1370,406,0,0,0,0,0,0,0,180,2.1,8,8,777.7,77777,9,999999999,0,0.0000,0,0,999.000,0.0,99.0
2014,3,30,5,0,?9?9?9?9E0?9?9?9?9*9?9?9?9?9*9?9*9*9?9*_?9?9*9?9*9,22.9,21.4,90,98090,0,1370,404,0,0,0,0,0,0,0,180,2.1,8,8,777.7,77777,9,999999999,0,0.0000,0,0,999.000,0.1,99.0
2014,3,30,6,0,?9?9?9?9E0?9?9?9?9*9?9?9?9?9*9?9*9*9?9*_?9?9*9?9*9,22.6,21.3,88,98090,0,1370,403,0,0,0,0,0,0,0,180,2.1,8,8,777.7,77777,9,999999999,0,0.0000,0,0,999.000,0.0,99.0
2014,3,30,7,0,?9?9?9?9E0?9?9?9?9*9?9?9?9?9*9?9*9*9?9*_?9?9*9?9*9,22.4,21.2,88,98090,183,1370,401,0,0,0,17,0,15,0,180,2.1,8,8,777.7,77777,9,999999999,0,0.0000,0,0,999.000,0.0,99.0
2014,3,30,8,0,?9?9?9?9E0?9?9?9?9*9?9?9?9?9*9?9*9*9?9*_?9?9*9?9*9,22.2,21.2,92,98090,499,1370,400,50,0,50,5972,0,5475,44,180,2.1,8,8,777.7,77777,9,999999999,0,0.0000,0,0,999.000,0.1,99.0
2014,3,30,9,0,?9?9?9?9E0?9?9?9?9*9?9?9?9?9*9?9*9*9?9*_?9?9*9?9*9,23.7,21.7,89,98090,780,1370,409,121,0,121,14575,0,13361,68,180,2.1,8,8,777.7,77777,9,999999999,0,0.0000,0,0,999.000,0.0,99.0
2014,3,30,10,0,?9?9?9?9E0?9?9?9?9*9?9?9?9?9*9?9*9*9?9*_?9?9*9?9*9,24.3,21.9,87,98090,1005,1370,413,185,2,183,22192,230,20147,79,180,2.1,8,8,777.7,77777,9,999999999,0,0.0000,0,0,999.000,0.1,99.0
2014,3,30,11,0,?9?9?9?9E0?9?9?9?9*9?9?9?9?9*9?9*9*9?9*_?9?9*9?9*9,24.9,22.1,83,98090,1161,1370,416,233,5,229,27986,509,25155,86,180,2.1,8,8,777.7,77777,9,999999999,0,0.0000,0,0,999.000,0.0,99.0
2014,3,30,12,0,?9?9?9?9E0?9?9?9?9*9?9?9?9?9*9?9*9*9?9*_?9?9*9?9*9,25.3,22.2,85,98090,1234,1370,418,262,7,256,31484,628,28205,91,180,2.1,8,8,777.7,77777,9,999999999,0,0.0000,0,0,999.000,0.0,99.0
2014,3,30,13,0,?9?9?9?9E0?9?9?9?9*9?9?9?9?9*9?9*9*9?9*_?9?9*9?9*9,25.6,22.4,82,98090,1222,1370,420,270,7,264,32424,653,29048,94,180,2.1,8,8,777.7,77777,9,999999999,0,0.0000,0,0,999.000,0.0,99.0
2014,3,30,14,0,?9?9?9?9E0?9?9?9?9*9?9?9?9?9*9?9*9*9?9*_?9?9*9?9*9,25.8,22.4,81,98090,1124,1370,421,256,6,251,30736,601,27603,97,180,2.1,8,8,777.7,77777,9,999999999,0,0.0000,0,0,999.000,0.0,99.0
2014,3,30,15,0,?9?9?9?9E0?9?9?9?9*9?9?9?9?9*9?9*9*9?9*_?9?9*9?9*9,25.8,22.4,81,98090,947,1370,422,221,5,218,26543,449,23971,100,180,2.1,8,8,777.7,77777,9,999999999,0,0.0000,0,0,999.000,0.0,99.0
2014,3,30,16,0,?9?9?9?9E0?9?9?9?9*9?9?9?9?9*9?9*9*9?9*_?9?9*9?9*9,25.7,22.4,81,98090,704,1370,421,168,2,167,20166,175,18381,104,180,2.1,8,8,777.7,77777,9,999999999,0,0.0000,0,0,999.000,0.0,99.0
2014,3,30,17,0,?9?9?9?9E0?9?9?9?9*9?9?9?9?9*9?9*9*9?9*_?9?9*9?9*9,25.4,22.3,82,98090,410,1370,419,101,0,101,12151,0,11139,108,180,2.1,8,8,777.7,77777,9,999999999,0,0.0000,0,0,999.000,0.0,99.0
2014,3,30,18,0,?9?9?9?9E0?9?9?9?9*9?9?9?9?9*9?9*9*9?9*_?9?9*9?9*9,25.0,22.1,86,98090,90,1370,416,30,44,27,3589,4139,2992,139,180,2.1,8,8,777.7,77777,9,999999999,0,0.0000,0,0,999.000,0.0,99.0
2014,3,30,19,0,?9?9?9?9E0?9?9?9?9*9?9?9?9?9*9?9*9*9?9*_?9?9*9?9*9,24.6,22.0,87,98090,0,1370,415,0,0,0,0,0,0,0,180,2.1,8,8,777.7,77777,9,999999999,0,0.0000,0,0,999.000,0.6,99.0
2014,3,30,20,0,?9?9?9?9E0?9?9?9?9*9?9?9?9?9*9?9*9*9?9*_?9?9*9?9*9,24.3,21.9,87,98090,0,1370,413,0,0,0,0,0,0,0,180,2.1,8,8,777.7,77777,9,999999999,0,0.0000,0,0,999.000,0.2,99.0
2014,3,30,21,0,?9?9?9?9E0?9?9?9?9*9?9?9?9?9*9?9*9*9?9*_?9?9*9?9*9,24.0,21.8,88,98090,0,1370,411,0,0,0,0,0,0,0,180,2.1,8,8,777.7,77777,9,999999999,0,0.0000,0,0,999.000,0.3,99.0
2014,3,30,22,0,?9?9?9?9E0?9?9?9?9*9?9?9?9?9*9?9*9*9?9*_?9?9*9?9*9,23.7,21.7,89,98090,0,1370,409,0,0,0,0,0,0,0,180,2.1,8,8,777.7,77777,9,999999999,0,0.0000,0,0,999.000,0.8,99.0
2014,3,30,23,0,?9?9?9?9E0?9?9?9?9*9?9?9?9?9*9?9*9*9?9*_?9?9*9?9*9,23.4,21.6,89,98090,0,1370,407,0,0,0,0,0,0,0,180,2.1,8,8,777.7,77777,9,999999999,0,0.0000,0,0,999.000,0.2,99.0
2014,3,30,24,0,?9?9?9?9E0?9?9?9?9*9?9?9?9?9*9?9*9*9?9*_?9?9*9?9*9,23.0,20.2,88,98090,0,1370,403,0,0,0,0,0,0,0,180,1.1,8,8,777.7,77777,9,999999999,0,0.0000,0,0,999.000,0.0,99.0
2014,3,31,1,0,?9?9?9?9E0?9?9?9?9*9?9?9?9?9*9?9*9*9?9*_?9?9*9?9*9,22.9,20.2,88,98090,0,1370,403,0,0,0,0,0,0,0,180,1.1,8,8,777.7,77777,9,999999999,0,0.0000,0,0,999.000,0.0,99.0
2014,3,31,2,0,?9?9?9?9E0?9?9?9?9*9?9?9?9?9*9?9*9*9?9*_?9?9*9?9*9,22.7,20.2,84,98090,0,1370,402,0,0,0,0,0,0,0,180,1.1,8,8,777.7,77777,9,999999999,0,0.0000,0,0,999.000,0.0,99.0
2014,3,31,3,0,?9?9?9?9E0?9?9?9?9*9?9?9?9?9*9?9*9*9?9*_?9?9*9?9*9,22.6,20.1,85,98090,0,1370,401,0,0,0,0,0,0,0,180,1.1,8,8,777.7,77777,9,999999999,0,0.0000,0,0,999.000,0.0,99.0
2014,3,31,4,0,?9?9?9?9E0?9?9?9?9*9?9?9?9?9*9?9*9*9?9*_?9?9*9?9*9,22.4,20.1,86,98090,0,1369,400,0,0,0,0,0,0,0,180,1.1,8,8,777.7,77777,9,999999999,0,0.0000,0,0,999.000,0.0,99.0
2014,3,31,5,0,?9?9?9?9E0?9?9?9?9*9?9?9?9?9*9?9*9*9?9*_?9?9*9?9*9,22.2,20.1,86,98090,0,1369,399,0,0,0,0,0,0,0,180,1.1,8,8,777.7,77777,9,999999999,0,0.0000,0,0,999.000,0.0,99.0
2014,3,31,6,0,?9?9?9?9E0?9?9?9?9*9?9?9?9?9*9?9*9*9?9*_?9?9*9?9*9,22.1,20.0,87,98090,0,1369,398,0,0,0,0,0,0,0,180,1.1,8,8,777.7,77777,9,999999999,0,0.0000,0,0,999.000,0.0,99.0
2014,3,31,7,0,?9?9?9?9E0?9?9?9?9*9?9?9?9?9*9?9*9*9?9*_?9?9*9?9*9,22.0,20.0,87,98090,181,1369,398,0,0,0,32,0,30,1,180,1.1,8,8,777.7,77777,9,999999999,0,0.0000,0,0,999.000,0.0,99.0
2014,3,31,8,0,?9?9?9?9E0?9?9?9?9*9?9?9?9?9*9?9*9*9?9*_?9?9*9?9*9,21.9,20.0,88,98090,496,1369,397,112,0,112,13442,0,12322,99,180,1.1,8,8,777.7,77777,9,999999999,0,0.0000,0,0,999.000,0.0,99.0
2014,3,31,9,0,?9?9?9?9E0?9?9?9?9*9?9?9?9?9*9?9*9*9?9*_?9?9*9?9*9,24.1,20.4,79,98090,777,1369,403,274,69,235,32917,6523,25891,132,180,1.1,7,7,777.7,77777,9,999999999,0,0.0000,0,0,999.000,0.0,99.0
2014,3,31,10,0,?9?9?9?9E0?9?9?9?9*9?9?9?9?9*9?9*9*9?9*_?9?9*9?9*9,25.0,20.6,76,98090,1002,1369,408,418,79,360,50159,7502,39623,157,180,1.7,7,7,777.7,77777,9,999999999,0,0.0000,0,0,999.000,0.0,99.0
2014,3,31,11,0,?9?9?9?9E0?9?9?9?9*9?9?9?9?9*9?9*9*9?9*_?9?9*9?9*9,25.7,20.7,73,98090,1157,1369,412,527,97,445,63264,9234,48959,168,180,2.1,7,7,777.7,77777,9,999999999,0,0.0000,0,0,999.000,0.0,99.0
2014,3,31,12,0,?9?9?9?9E0?9?9?9?9*9?9?9?9?9*9?9*9*9?9*_?9?9*9?9*9,26.3,20.9,71,98090,1230,1369,416,593,116,489,71165,10973,53819,173,180,2.8,7,7,777.7,77777,9,999999999,0,0.0000,0,0,999.000,0.0,99.0
2014,3,31,13,0,?9?9?9?9E0?9?9?9?9*9?9?9?9?9*9?9*9*9?9*_?9?9*9?9*9,26.7,20.9,70,98090,1217,1369,418,611,137,489,73265,12977,53801,175,180,3.3,7,7,777.7,77777,9,999999999,0,0.0000,0,0,999.000,0.0,99.0
2014,3,31,14,0,?9?9?9?9E0?9?9?9?9*9?9?9?9?9*9?9*9*9?9*_?9?9*9?9*9,27.0,21.0,69,98090,1119,1369,420,578,165,444,69408,15672,48794,173,180,4.2,7,7,777.7,77777,9,999999999,0,0.0000,0,0,999.000,0.0,99.0
2014,3,31,15,0,?9?9?9?9E0?9?9?9?9*9?9?9?9?9*9?9*9*9?9*_?9?9*9?9*9,27.1,21.0,69,98090,942,1369,420,499,170,382,59881,16149,42030,177,180,4.2,7,7,777.7,77777,9,999999999,0,0.0000,0,0,999.000,0.0,99.0
2014,3,31,16,0,?9?9?9?9E0?9?9?9?9*9?9?9?9?9*9?9*9*9?9*_?9?9*9?9*9,26.9,21.0,69,98090,698,1369,419,378,376,187,45409,35696,20556,117,180,4.5,7,7,777.7,77777,9,999999999,0,0.0000,0,0,999.000,0.0,99.0
2014,3,31,17,0,?9?9?9?9E0?9?9?9?9*9?9?9?9?9*9?9*9*9?9*_?9?9*9?9*9,26.5,20.9,71,98090,405,1369,423,227,430,100,27236,40828,11017,108,180,3.9,8,8,777.7,77777,9,999999999,0,0.0000,0,0,999.000,0.0,99.0
2014,3,31,18,0,?9?9?9?9E0?9?9?9?9*9?9?9?9?9*9?9*9*9?9*_?9?9*9?9*9,26.0,20.8,75,98090,85,1369,420,134,115,127,16103,10919,14022,694,180,3.6,8,8,777.7,77777,9,999999999,0,0.0000,0,0,999.000,0.2,99.0
2014,3,31,19,0,?9?9?9?9E0?9?9?9?9*9?9?9?9?9*9?9*9*9?9*_?9?9*9?9*9,25.5,20.7,76,98090,0,1369,418,59,0,0,7021,0,0,0,180,3.1,8,8,777.7,77777,9,999999999,0,0.0000,0,0,999.000,0.2,99.0
2014,3,31,20,0,?9?9?9?9E0?9?9?9?9*9?9?9?9?9*9?9*9*9?9*_?9?9*9?9*9,25.1,20.6,79,98090,0,1369,415,13,0,0,1574,0,0,0,180,2.6,8,8,777.7,77777,9,999999999,0,0.0000,0,0,999.000,0.2,99.0
2014,3,31,21,0,?9?9?9?9E0?9?9?9?9*9?9?9?9?9*9?9*9*9?9*_?9?9*9?9*9,24.7,20.5,79,98090,0,1369,413,0,0,0,0,0,0,0,180,2.1,8,8,777.7,77777,9,999999999,0,0.0000,0,0,999.000,0.0,99.0
2014,3,31,22,0,?9?9?9?9E0?9?9?9?9*9?9?9?9?9*9?9*9*9?9*_?9?9*9?9*9,24.5,20.7,80,98090,0,1369,412,0,0,0,0,0,0,0,180,1.7,8,8,777.7,77777,9,999999999,0,0.0000,0,0,999.000,0.0,99.0
2014,3,31,23,0,?9?9?9?9E0?9?9?9?9*9?9?9?9?9*9?9*9*9?9*_?9?9*9?9*9,24.3,20.9,82,98090,0,1369,405,0,0,0,0,0,0,0,180,1.3,7,7,777.7,77777,9,999999999,0,0.0000,0,0,999.000,0.1,99.0
2014,3,31,24,0,?9?9?9?9E0?9?9?9?9*9?9?9?9?9*9?9*9*9?9*_?9?9*9?9*9,24.2,21.1,84,98090,0,1369,404,0,0,0,0,0,0,0,180,1.2,7,7,777.7,77777,9,999999999,0,0.0000,0,0,999.000,0.2,99.0
2010,4,1,1,0,?9?9?9?9E0?9?9?9?9*9?9?9?9?9*9?9*9*9?9*_?9?9*9?9*9,24.0,21.2,84,98090,0,1369,404,0,0,0,0,0,0,0,180,1.1,7,7,777.7,77777,9,999999999,0,0.0000,0,0,999.000,0.2,99.0
2010,4,1,2,0,?9?9?9?9E0?9?9?9?9*9?9?9?9?9*9?9*9*9?9*_?9?9*9?9*9,23.9,21.4,84,98090,0,1369,399,0,0,0,0,0,0,0,180,1.1,6,6,777.7,77777,9,999999999,0,0.0000,0,0,999.000,0.2,99.0
2010,4,1,3,0,?9?9?9?9E0?9?9?9?9*9?9?9?9?9*9?9*9*9?9*_?9?9*9?9*9,23.7,21.3,85,98090,0,1369,397,0,0,0,0,0,0,0,180,1.1,6,6,777.7,77777,9,999999999,0,0.0000,0,0,999.000,0.3,99.0
2010,4,1,4,0,?9?9?9?9E0?9?9?9?9*9?9?9?9?9*9?9*9*9?9*_?9?9*9?9*9,23.5,21.2,85,98090,0,1368,396,0,0,0,0,0,0,0,180,1.1,6,6,777.7,77777,9,999999999,0,0.0000,0,0,999.000,0.2,99.0
2010,4,1,5,0,?9?9?9?9E0?9?9?9?9*9?9?9?9?9*9?9*9*9?9*_?9?9*9?9*9,23.2,21.2,85,98090,0,1368,395,0,0,0,22,0,0,0,180,1.1,6,6,777.7,77777,9,999999999,0,0.0000,0,0,999.000,0.2,99.0
2010,4,1,6,0,?9?9?9?9E0?9?9?9?9*9?9?9?9?9*9?9*9*9?9*_?9?9*9?9*9,23.0,21.1,84,98090,0,1368,390,0,0,0,0,0,0,0,180,1.1,5,5,777.7,77777,9,999999999,0,0.0000,0,0,999.000,0.0,99.0
2010,4,1,7,0,?9?9?9?9E0?9?9?9?9*9?9?9?9?9*9?9*9*9?9*_?9?9*9?9*9,22.9,21.0,85,98090,179,1368,389,1,0,1,110,0,101,2,180,1.1,5,5,777.7,77777,9,999999999,0,0.0000,0,0,999.000,0.0,99.0
2010,4,1,8,0,?9?9?9?9E0?9?9?9?9*9?9?9?9?9*9?9*9*9?9*_?9?9*9?9*9,22.7,21.0,85,98090,494,1368,388,179,94,145,21424,8958,15901,128,180,1.1,5,5,777.7,77777,9,999999999,0,0.0000,0,0,999.000,0.0,99.0
2010,4,1,9,0,?9?9?9?9E0?9?9?9?9*9?9?9?9?9*9?9*9*9?9*_?9?9*9?9*9,25.4,21.9,78,98090,774,1368,381,434,363,228,52044,34490,25133,129,180,1.1,0,0,777.7,77777,9,999999999,0,0.0000,0,0,999.000,0.0,99.0
2010,4,1,10,0,?9?9?9?9E0?9?9?9?9*9?9?9?9?9*9?9*9*9?9*_?9?9*9?9*9,26.2,22.1,76,98090,998,1368,393,608,438,288,72906,41591,31691,126,180,1.1,1,1,777.7,77777,9,999999999,0,0.0000,0,0,999.000,0.0,99.0
2010,4,1,11,0,?9?9?9?9E0?9?9?9?9*9?9?9?9?9*9?9*9*9?9*_?9?9*9?9*9,27.1,22.5,74,98090,1153,1368,391,831,695,245,99673,66051,26940,93,180,2.1,0,0,777.7,77777,9,999999999,0,0.0000,0,0,999.000,0.0,99.0
2010,4,1,12,0,?9?9?9?9E0?9?9?9?9*9?9?9?9?9*9?9*9*9?9*_?9?9*9?9*9,27.7,22.6,73,98090,1225,1368,394,853,612,304,102307,58139,33482,108,180,2.5,0,0,777.7,77777,9,999999999,0,0.0000,0,0,999.000,0.0,99.0
2010,4,1,13,0,?9?9?9?9E0?9?9?9?9*9?9?9?9?9*9?9*9*9?9*_?9?9*9?9*9,28.1,22.7,72,98090,1212,1368,409,823,552,333,98734,52483,36663,120,180,3.3,2,2,777.7,77777,9,999999999,0,0.0000,0,0,999.000,0.0,99.0
2010,4,1,14,0,?9?9?9?9E0?9?9?9?9*9?9?9?9?9*9?9*9*9?9*_?9?9*9?9*9,28.1,22.8,72,98090,1114,1368,420,670,379,361,80348,36023,39704,141,180,4.4,5,5,777.7,77777,9,999999999,0,0.0000,0,0,999.000,0.0,99.0
2010,4,1,15,0,?9?9?9?9E0?9?9?9?9*9?9?9?9?9*9?9*9*9?9*_?9?9*9?9*9,27.8,22.7,73,98090,937,1368,427,459,159,350,55129,15125,38550,163,180,4.7,7,7,777.7,77777,9,999999999,0,0.0000,0,0,999.000,0.0,99.0
2010,4,1,16,0,?9?9?9?9E0?9?9?9?9*9?9?9?9?9*9?9*9*9?9*_?9?9*9?9*9,27.3,22.5,78,98090,693,1368,430,306,128,241,36679,12196,26475,151,180,4.8,8,8,777.7,77777,9,999999999,0,0.0000,0,0,999.000,0.0,99.0
2010,4,1,17,0,?9?9?9?9E0?9?9?9?9*9?9?9?9?9*9?9*9*9?9*_?9?9*9?9*9,26.7,22.3,79,98090,400,1368,427,146,107,114,17471,10158,12587,125,180,4.8,8,8,777.7,77777,9,999999999,0,0.0000,0,0,999.000,0.0,99.0
2010,4,1,18,0,?9?9?9?9E0?9?9?9?9*9?9?9?9?9*9?9*9*9?9*_?9?9*9?9*9,26.1,22.1,80,98090,80,1368,423,80,162,72,9648,15399,7865,415,180,4.3,8,8,777.7,77777,9,999999999,0,0.0000,0,0,999.000,0.1,99.0
2010,4,1,19,0,?9?9?9?9E0?9?9?9?9*9?9?9?9?9*9?9*9*9?9*_?9?9*9?9*9,25.8,22.0,81,98090,0,1368,421,0,0,0,0,0,0,0,180,3.8,8,8,777.7,77777,9,999999999,0,0.0000,0,0,999.000,0.1,99.0
2010,4,1,20,0,?9?9?9?9E0?9?9?9?9*9?9?9?9?9*9?9*9*9?9*_?9?9*9?9*9,25.4,21.9,90,98090,0,1368,419,0,0,0,0,0,0,0,180,2.8,8,8,777.7,77777,9,999999999,11,0.0000,0,0,999.000,11.9,99.0
2010,4,1,21,0,?9?9?9?9E0?9?9?9?9*9?9?9?9?9*9?9*9*9?9*_?9?9*9?9*9,25.1,21.8,83,98090,0,1368,417,0,0,0,0,0,0,0,180,2.3,8,8,777.7,77777,9,999999999,0,0.0000,0,0,999.000,0.0,99.0
2010,4,1,22,0,?9?9?9?9E0?9?9?9?9*9?9?9?9?9*9?9*9*9?9*_?9?9*9?9*9,24.7,21.7,84,98090,0,1368,415,0,0,0,0,0,0,0,180,2.0,8,8,777.7,77777,9,999999999,0,0.0000,0,0,999.000,0.1,99.0
2010,4,1,23,0,?9?9?9?9E0?9?9?9?9*9?9?9?9?9*9?9*9*9?9*_?9?9*9?9*9,24.4,21.5,85,98090,0,1368,413,0,0,0,0,0,0,0,180,1.7,8,8,777.7,77777,9,999999999,0,0.0000,0,0,999.000,0.0,99.0
2010,4,1,24,0,?9?9?9?9E0?9?9?9?9*9?9?9?9?9*9?9*9*9?9*_?9?9*9?9*9,24.0,21.5,82,98090,0,1368,411,0,0,0,0,0,0,0,180,1.8,8,8,777.7,77777,9,999999999,0,0.0000,0,0,999.000,0.1,99.0
2010,4,2,1,0,?9?9?9?9E0?9?9?9?9*9?9?9?9?9*9?9*9*9?9*_?9?9*9?9*9,23.9,21.5,82,98090,0,1368,410,0,0,0,0,0,0,0,180,1.5,8,8,777.7,77777,9,999999999,0,0.0000,0,0,999.000,0.1,99.0
2010,4,2,2,0,?9?9?9?9E0?9?9?9?9*9?9?9?9?9*9?9*9*9?9*_?9?9*9?9*9,23.7,21.5,80,98090,0,1368,409,0,0,0,0,0,0,0,180,1.2,8,8,777.7,77777,9,999999999,0,0.0000,0,0,999.000,0.0,99.0
2010,4,2,3,0,?9?9?9?9E0?9?9?9?9*9?9?9?9?9*9?9*9*9?9*_?9?9*9?9*9,23.5,21.4,83,98090,0,1368,408,0,0,0,0,0,0,0,180,1.2,8,8,777.7,77777,9,999999999,0,0.0000,0,0,999.000,0.0,99.0
2010,4,2,4,0,?9?9?9?9E0?9?9?9?9*9?9?9?9?9*9?9*9*9?9*_?9?9*9?9*9,23.4,21.4,81,98090,0,1367,407,0,0,0,0,0,0,0,180,1.3,8,8,777.7,77777,9,999999999,0,0.0000,0,0,999.000,0.0,99.0
2010,4,2,5,0,?9?9?9?9E0?9?9?9?9*9?9?9?9?9*9?9*9*9?9*_?9?9*9?9*9,23.2,21.4,84,98090,0,1367,406,0,0,0,0,0,0,0,180,1.3,8,8,777.7,77777,9,999999999,0,0.0000,0,0,999.000,0.2,99.0
2010,4,2,6,0,?9?9?9?9E0?9?9?9?9*9?9?9?9?9*9?9*9*9?9*_?9?9*9?9*9,23.1,21.3,91,98090,0,1367,405,0,0,0,0,0,0,0,180,1.2,8,8,777.7,77777,9,999999999,6,0.0000,0,0,999.000,6.3,99.0
2010,4,2,7,0,?9?9?9?9E0?9?9?9?9*9?9?9?9?9*9?9*9*9?9*_?9?9*9?9*9,23.0,21.3,85,98090,177,1367,404,0,0,0,26,0,24,1,180,1.3,8,8,777.7,77777,9,999999999,0,0.0000,0,0,999.000,0.3,99.0
2010,4,2,8,0,?9?9?9?9E0?9?9?9?9*9?9?9?9?9*9?9*9*9?9*_?9?9*9?9*9,22.8,21.3,82,98090,491,1367,404,122,2,121,14664,225,13349,108,180,1.5,8,8,777.7,77777,9,999999999,0,0.0000,0,0,999.000,0.0,99.0
2010,4,2,9,0,?9?9?9?9E0?9?9?9?9*9?9?9?9?9*9?9*9*9?9*_?9?9*9?9*9,25.2,21.8,76,98090,771,1367,411,301,86,253,36164,8163,27825,143,180,2.3,7,7,777.7,77777,9,999999999,0,0.0000,0,0,999.000,0.0,99.0
2010,4,2,10,0,?9?9?9?9E0?9?9?9?9*9?9?9?9?9*9?9*9*9?9*_?9?9*9?9*9,26.2,21.9,74,98090,995,1367,412,460,120,373,55190,11391,40996,163,180,3.8,6,6,777.7,77777,9,999999999,0,0.0000,0,0,999.000,0.0,99.0
2010,4,2,11,0,?9?9?9?9E0?9?9?9?9*9?9?9?9?9*9?9*9*9?9*_?9?9*9?9*9,27.0,22.1,72,98090,1148,1367,416,580,147,457,69632,13986,50228,173,180,5.0,6,6,777.7,77777,9,999999999,0,0.0000,0,0,999.000,0.0,99.0
2010,4,2,12,0,?9?9?9?9E0?9?9?9?9*9?9?9?9?9*9?9*9*9?9*_?9?9*9?9*9,27.6,22.2,71,98090,1221,1367,420,653,175,496,78310,16607,54614,177,180,6.3,6,6,777.7,77777,9,999999999,0,0.0000,0,0,999.000,0.0,99.0
2010,4,2,13,0,?9?9?9?9E0?9?9?9?9*9?9?9?9?9*9?9*9*9?9*_?9?9*9?9*9,28.1,22.3,70,98090,1207,1367,423,671,282,423,80567,26770,46487,152,180,6.5,6,6,777.7,77777,9,999999999,0,0.0000,0,0,999.000,0.0,99.0
2010,4,2,14,0,?9?9?9?9E0?9?9?9?9*9?9?9?9?9*9?9*9*9?9*_?9?9*9?9*9,28.4,22.3,69,98090,1108,1367,424,635,337,362,76240,32050,39809,142,180,6.8,6,6,777.7,77777,9,999999999,0,0.0000,0,0,999.000,0.0,99.0
2010,4,2,15,0,?9?9?9?9E0?9?9?9?9*9?9?9?9?9*9?9*9*9?9*_?9?9*9?9*9,28.5,22.3,69,98090,931,1367,425,547,401,274,65645,38070,30167,128,180,6.3,6,6,777.7,77777,9,999999999,0,0.0000,0,0,999.000,0.0,99.0
2010,4,2,16,0,?9?9?9?9E0?9?9?9?9*9?9?9?9?9*9?9*9*9?9*_?9?9*9?9*9,28.3,22.3,69,98090,688,1367,424,413,493,166,49595,46821,18224,105,180,6.4,6,6,777.7,77777,9,999999999,0,0.0000,0,0,999.000,0.0,99.0
2010,4,2,17,0,?9?9?9?9E0?9?9?9?9*9?9?9?9?9*9?9*9*9?9*_?9?9*9?9*9,27.8,22.2,70,98090,395,1367,426,246,499,102,29474,47385,11233,113,180,6.1,7,7,777.7,77777,9,999999999,0,0.0000,0,0,999.000,0.0,99.0
2010,4,2,18,0,?9?9?9?9E0?9?9?9?9*9?9?9?9?9*9?9*9*9?9*_?9?9*9?9*9,27.1,22.1,72,98090,75,1367,429,68,0,68,8141,0,7462,422,180,5.4,8,8,777.7,77777,9,999999999,0,0.0000,0,0,999.000,0.0,99.0
2010,4,2,19,0,?9?9?9?9E0?9?9?9?9*9?9?9?9?9*9?9*9*9?9*_?9?9*9?9*9,26.7,22.0,73,98090,0,1367,426,0,0,0,0,0,0,0,180,4.6,8,8,777.7,77777,9,999999999,0,0.0000,0,0,999.000,0.0,99.0
2010,4,2,20,0,?9?9?9?9E0?9?9?9?9*9?9?9?9?9*9?9*9*9?9*_?9?9*9?9*9,26.3,21.9,77,98090,0,1367,424,0,0,0,0,0,0,0,180,3.5,8,8,777.7,77777,9,999999999,0,0.0000,0,0,999.000,0.0,99.0
2010,4,2,21,0,?9?9?9?9E0?9?9?9?9*9?9?9?9?9*9?9*9*9?9*_?9?9*9?9*9,25.9,21.9,78,98090,0,1367,421,0,0,0,0,0,0,0,180,2.4,8,8,777.7,77777,9,999999999,0,0.0000,0,0,999.000,0.0,99.0
2010,4,2,22,0,?9?9?9?9E0?9?9?9?9*9?9?9?9?9*9?9*9*9?9*_?9?9*9?9*9,25.4,21.8,76,98090,0,1367,412,0,0,0,0,0,0,0,180,1.9,7,7,777.7,77777,9,999999999,0,0.0000,0,0,999.000,0.0,99.0
2010,4,2,23,0,?9?9?9?9E0?9?9?9?9*9?9?9?9?9*9?9*9*9?9*_?9?9*9?9*9,25.0,21.7,77,98090,0,1367,410,0,0,0,0,0,0,0,180,2.0,7,7,777.7,77777,9,999999999,0,0.0000,0,0,999.000,0.0,99.0
2010,4,2,24,0,?9?9?9?9E0?9?9?9?9*9?9?9?9?9*9?9*9*9?9*_?9?9*9?9*9,24.6,21.2,86,98090,0,1367,406,0,0,0,0,0,0,0,180,1.4,7,7,777.7,77777,9,999999999,0,0.0000,0,0,999.000,0.0,99.0
2010,4,3,1,0,?9?9?9?9E0?9?9?9?9*9?9?9?9?9*9?9*9*9?9*_?9?9*9?9*9,24.3,21.2,82,98090,0,1367,405,0,0,0,0,0,0,0,180,1.2,7,7,777.7,77777,9,999999999,0,0.0000,0,0,999.000,0.0,99.0
2010,4,3,2,0,?9?9?9?9E0?9?9?9?9*9?9?9?9?9*9?9*9*9?9*_?9?9*9?9*9,24.1,21.3,83,98090,0,1367,404,0,0,0,0,0,0,0,180,1.1,7,7,777.7,77777,9,999999999,0,0.0000,0,0,999.000,0.0,99.0
2010,4,3,3,0,?9?9?9?9E0?9?9?9?9*9?9?9?9?9*9?9*9*9?9*_?9?9*9?9*9,23.9,21.3,85,98090,0,1367,403,0,0,0,0,0,0,0,180,1.1,7,7,777.7,77777,9,999999999,0,0.0000,0,0,999.000,0.0,99.0
2010,4,3,4,0,?9?9?9?9E0?9?9?9?9*9?9?9?9?9*9?9*9*9?9*_?9?9*9?9*9,23.7,21.4,86,98090,0,1366,402,0,0,0,0,0,0,0,180,1.1,7,7,777.7,77777,9,999999999,0,0.0000,0,0,999.000,0.0,99.0
2010,4,3,5,0,?9?9?9?9E0?9?9?9?9*9?9?9?9?9*9?9*9*9?9*_?9?9*9?9*9,23.5,21.4,88,98090,0,1366,396,0,0,0,0,0,0,0,180,1.1,6,6,777.7,77777,9,999999999,0,0.0000,0,0,999.000,0.0,99.0
2010,4,3,6,0,?9?9?9?9E0?9?9?9?9*9?9?9?9?9*9?9*9*9?9*_?9?9*9?9*9,23.3,21.4,89,98090,0,1366,395,0,0,0,0,0,0,0,180,1.1,6,6,777.7,77777,9,999999999,0,0.0000,0,0,999.000,0.0,99.0
2010,4,3,7,0,?9?9?9?9E0?9?9?9?9*9?9?9?9?9*9?9*9*9?9*_?9?9*9?9*9,23.2,21.5,90,98090,175,1366,395,0,0,0,59,0,54,1,180,1.2,6,6,777.7,77777,9,999999999,0,0.0000,0,0,999.000,0.0,99.0
2010,4,3,8,0,?9?9?9?9E0?9?9?9?9*9?9?9?9?9*9?9*9*9?9*_?9?9*9?9*9,23.0,21.5,91,98090,489,1366,394,162,67,139,19488,6325,15248,124,180,1.5,6,6,777.7,77777,9,999999999,0,0.0000,0,0,999.000,0.0,99.0
2010,4,3,9,0,?9?9?9?9E0?9?9?9?9*9?9?9?9?9*9?9*9*9?9*_?9?9*9?9*9,25.6,20.9,75,98090,768,1366,394,406,296,240,48720,28095,26393,136,180,2.4,2,2,777.7,77777,9,999999999,0,0.0000,0,0,999.000,0.0,99.0
2010,4,3,10,0,?9?9?9?9E0?9?9?9?9*9?9?9?9?9*9?9*9*9?9*_?9?9*9?9*9,26.6,20.7,69,98090,991,1366,386,610,468,271,73258,44444,29827,119,180,3.2,0,0,777.7,77777,9,999999999,0,0.0000,0,0,999.000,0.0,99.0
2010,4,3,11,0,?9?9?9?9E0?9?9?9?9*9?9?9?9?9*9?9*9*9?9*_?9?9*9?9*9,27.5,20.5,65,98090,1144,1366,390,752,552,289,90180,52479,31783,110,180,4.4,0,0,777.7,77777,9,999999999,0,0.0000,0,0,999.000,0.0,99.0
2010,4,3,12,0,?9?9?9?9E0?9?9?9?9*9?9?9?9?9*9?9*9*9?9*_?9?9*9?9*9,28.1,20.4,62,98090,1216,1366,393,840,600,306,100770,56963,33670,109,180,4.8,0,0,777.7,77777,9,999999999,0,0.0000,0,0,999.000,0.0,99.0
2010,4,3,13,0,?9?9?9?9E0?9?9?9?9*9?9?9?9?9*9?9*9*9?9*_?9?9*9?9*9,28.6,20.2,60,98090,1202,1366,396,874,738,224,104843,70112,24691,81,180,5.6,0,0,777.7,77777,9,999999999,0,0.0000,0,0,999.000,0.0,99.0
2010,4,3,14,0,?9?9?9?9E0?9?9?9?9*9?9?9?9?9*9?9*9*9?9*_?9?9*9?9*9,28.9,20.2,59,98090,1103,1366,397,813,835,139,97572,79336,15302,55,180,5.9,0,0,777.7,77777,9,999999999,0,0.0000,0,0,999.000,0.0,99.0
2010,4,3,15,0,?9?9?9?9E0?9?9?9?9*9?9?9?9?9*9?9*9*9?9*_?9?9*9?9*9,29.0,20.2,59,98090,926,1366,410,682,913,64,81851,86757,7010,30,180,6.4,2,2,777.7,77777,9,999999999,0,0.0000,0,0,999.000,0.0,99.0
2010,4,3,16,0,?9?9?9?9E0?9?9?9?9*9?9?9?9?9*9?9*9*9?9*_?9?9*9?9*9,28.7,20.2,60,98090,682,1366,417,502,744,131,60256,70693,14414,84,180,6.4,4,4,777.7,77777,9,999999999,0,0.0000,0,0,999.000,0.0,99.0
2010,4,3,17,0,?9?9?9?9E0?9?9?9?9*9?9?9?9?9*9?9*9*9?9*_?9?9*9?9*9,28.2,20.3,62,98090,389,1366,417,302,469,169,36242,44565,18570,189,180,5.2,5,5,777.7,77777,9,999999999,0,0.0000,0,0,999.000,0.0,99.0
2010,4,3,18,0,?9?9?9?9E0?9?9?9?9*9?9?9?9?9*9?9*9*9?9*_?9?9*9?9*9,27.5,20.5,65,98090,71,1366,428,78,0,78,9319,0,8543,520,180,4.8,8,8,777.7,77777,9,999999999,0,0.0000,0,0,999.000,0.0,99.0
2010,4,3,19,0,?9?9?9?9E0?9?9?9?9*9?9?9?9?9*9?9*9*9?9*_?9?9*9?9*9,26.9,20.6,73,98090,0,1366,426,0,0,0,0,0,0,0,180,4.1,8,8,777.7,77777,9,999999999,0,0.0000,0,0,999.000,0.0,99.0
2010,4,3,20,0,?9?9?9?9E0?9?9?9?9*9?9?9?9?9*9?9*9*9?9*_?9?9*9?9*9,26.4,20.8,76,98090,0,1366,423,0,0,0,0,0,0,0,180,3.2,8,8,777.7,77777,9,999999999,0,0.0000,0,0,999.000,0.0,99.0
2010,4,3,21,0,?9?9?9?9E0?9?9?9?9*9?9?9?9?9*9?9*9*9?9*_?9?9*9?9*9,25.9,20.9,83,98090,0,1366,420,0,0,0,0,0,0,0,180,2.8,8,8,777.7,77777,9,999999999,3,0.0000,0,0,999.000,3.7,99.0
2010,4,3,22,0,?9?9?9?9E0?9?9?9?9*9?9?9?9?9*9?9*9*9?9*_?9?9*9?9*9,25.4,21.0,81,98090,0,1366,417,0,0,0,0,0,0,0,180,2.1,8,8,777.7,77777,9,999999999,0,0.0000,0,0,999.000,0.2,99.0
2010,4,3,23,0,?9?9?9?9E0?9?9?9?9*9?9?9?9?9*9?9*9*9?9*_?9?9*9?9*9,24.8,21.1,84,98090,0,1366,414,0,0,0,0,0,0,0,180,1.7,8,8,777.7,77777,9,999999999,0,0.0000,0,0,999.000,0.1,99.0
2010,4,3,24,0,?9?9?9?9E0?9?9?9?9*9?9?9?9?9*9?9*9*9?9*_?9?9*9?9*9,24.3,21.0,85,98090,0,1366,411,0,0,0,0,0,0,0,180,2.4,8,8,777.7,77777,9,999999999,0,0.0000,0,0,999.000,0.2,99.0
2010,4,4,1,0,?9?9?9?9E0?9?9?9?9*9?9?9?9?9*9?9*9*9?9*_?9?9*9?9*9,24.0,21.0,81,98090,0,1366,410,0,0,0,0,0,0,0,180,2.3,8,8,777.7,77777,9,999999999,0,0.0000,0,0,999.000,0.0,99.0
2010,4,4,2,0,?9?9?9?9E0?9?9?9?9*9?9?9?9?9*9?9*9*9?9*_?9?9*9?9*9,23.8,21.0,87,98090,0,1366,408,0,0,0,0,0,0,0,180,2.1,8,8,777.7,77777,9,999999999,0,0.0000,0,0,999.000,0.0,99.0
2010,4,4,3,0,?9?9?9?9E0?9?9?9?9*9?9?9?9?9*9?9*9*9?9*_?9?9*9?9*9,23.5,21.0,83,98090,0,1366,407,0,0,0,0,0,0,0,180,1.8,8,8,777.7,77777,9,999999999,0,0.0000,0,0,999.000,0.0,99.0
2010,4,4,4,0,?9?9?9?9E0?9?9?9?9*9?9?9?9?9*9?9*9*9?9*_?9?9*9?9*9,23.2,20.9,85,98090,0,1366,405,0,0,0,0,0,0,0,180,1.8,8,8,777.7,77777,9,999999999,0,0.0000,0,0,999.000,0.0,99.0
2010,4,4,5,0,?9?9?9?9E0?9?9?9?9*9?9?9?9?9*9?9*9*9?9*_?9?9*9?9*9,23.0,20.9,91,98090,0,1366,404,0,0,0,0,0,0,0,180,1.8,8,8,777.7,77777,9,999999999,0,0.0000,0,0,999.000,0.0,99.0
2010,4,4,6,0,?9?9?9?9E0?9?9?9?9*9?9?9?9?9*9?9*9*9?9*_?9?9*9?9*9,22.8,20.9,87,98090,0,1366,403,0,0,0,0,0,0,0,180,1.8,8,8,777.7,77777,9,999999999,0,0.0000,0,0,999.000,0.0,99.0
2010,4,4,7,0,?9?9?9?9E0?9?9?9?9*9?9?9?9?9*9?9*9*9?9*_?9?9*9?9*9,22.6,20.9,88,98090,173,1366,402,0,0,0,18,0,17,0,180,1.8,8,8,777.7,77777,9,999999999,0,0.0000,0,0,999.000,0.0,99.0
2010,4,4,8,0,?9?9?9?9E0?9?9?9?9*9?9?9?9?9*9?9*9*9?9*_?9?9*9?9*9,22.4,20.9,89,98090,487,1366,401,110,0,110,13174,0,12076,98,180,1.8,8,8,777.7,77777,9,999999999,0,0.0000,0,0,999.000,0.0,99.0
2010,4,4,9,0,?9?9?9?9E0?9?9?9?9*9?9?9?9?9*9?9*9*9?9*_?9?9*9?9*9,24.8,21.0,78,98090,765,1366,408,273,72,232,32730,6859,25558,132,180,2.2,7,7,777.7,77777,9,999999999,0,0.0000,0,0,999.000,0.0,99.0
2010,4,4,10,0,?9?9?9?9E0?9?9?9?9*9?9?9?9?9*9?9*9*9?9*_?9?9*9?9*9,25.8,21.0,74,98090,988,1366,413,417,83,357,50028,7926,39223,157,180,3.5,7,7,777.7,77777,9,999999999,0,0.0000,0,0,999.000,0.0,99.0
2010,4,4,11,0,?9?9?9?9E0?9?9?9?9*9?9?9?9?9*9?9*9*9?9*_?9?9*9?9*9,26.6,21.1,71,98090,1140,1366,417,526,103,440,63139,9782,48423,168,180,4.7,7,7,777.7,77777,9,999999999,0,0.0000,0,0,999.000,0.0,99.0
2010,4,4,12,0,?9?9?9?9E0?9?9?9?9*9?9?9?9?9*9?9*9*9?9*_?9?9*9?9*9,27.2,21.1,68,98090,1212,1366,421,592,123,483,70990,11644,53114,173,180,6.0,7,7,777.7,77777,9,999999999,0,0.0000,0,0,999.000,0.0,99.0
2010,4,4,13,0,?9?9?9?9E0?9?9?9?9*9?9?9?9?9*9?9*9*9?9*_?9?9*9?9*9,27.7,21.1,67,98090,1197,1366,424,608,145,481,72989,13790,52912,175,180,6.3,7,7,777.7,77777,9,999999999,0,0.0000,0,0,999.000,0.0,99.0
2010,4,4,14,0,?9?9?9?9E0?9?9?9?9*9?9?9?9?9*9?9*9*9?9*_?9?9*9?9*9,28.0,21.2,66,98090,1098,1366,425,575,175,434,68986,16672,47724,172,180,6.1,7,7,777.7,77777,9,999999999,0,0.0000,0,0,999.000,0.0,99.0
2010,4,4,15,0,?9?9?9?9E0?9?9?9?9*9?9?9?9?9*9?9*9*9?9*_?9?9*9?9*9,28.0,21.2,70,98090,920,1366,426,494,290,299,59280,27554,32853,141,180,5.9,7,7,777.7,77777,9,999999999,0,0.0000,0,0,999.000,0.0,99.0
2010,4,4,16,0,?9?9?9?9E0?9?9?9?9*9?9?9?9?9*9?9*9*9?9*_?9?9*9?9*9,27.9,21.2,71,98090,677,1366,425,372,367,190,44614,34856,20919,122,180,5.5,7,7,777.7,77777,9,999999999,0,0.0000,0,0,999.000,0.0,99.0
2010,4,4,17,0,?9?9?9?9E0?9?9?9?9*9?9?9?9?9*9?9*9*9?9*_?9?9*9?9*9,27.4,21.1,82,98090,384,1366,429,219,398,107,26261,37833,11797,122,180,4.8,8,8,777.7,77777,9,999999999,7,0.0000,0,0,999.000,7.1,99.0
2010,4,4,18,0,?9?9?9?9E0?9?9?9?9*9?9?9?9?9*9?9*9*9?9*_?9?9*9?9*9,26.7,21.1,75,98090,66,1366,425,58,0,58,6907,0,6332,417,180,4.2,8,8,777.7,77777,9,999999999,0,0.0000,0,0,999.000,0.4,99.0
2010,4,4,19,0,?9?9?9?9E0?9?9?9?9*9?9?9?9?9*9?9*9*9?9*_?9?9*9?9*9,26.2,21.1,77,98090,0,1366,415,0,0,0,0,0,0,0,180,3.1,7,7,777.7,77777,9,999999999,0,0.0000,0,0,999.000,0.1,99.0
2010,4,4,20,0,?9?9?9?9E0?9?9?9?9*9?9?9?9?9*9?9*9*9?9*_?9?9*9?9*9,25.7,21.0,79,98090,0,1366,413,0,0,0,0,0,0,0,180,2.0,7,7,777.7,77777,9,999999999,0,0.0000,0,0,999.000,0.1,99.0
2010,4,4,21,0,?9?9?9?9E0?9?9?9?9*9?9?9?9?9*9?9*9*9?9*_?9?9*9?9*9,25.3,21.0,76,98090,0,1366,405,0,0,0,0,0,0,0,180,1.8,6,6,777.7,77777,9,999999999,0,0.0000,0,0,999.000,0.0,99.0
2010,4,4,22,0,?9?9?9?9E0?9?9?9?9*9?9?9?9?9*9?9*9*9?9*_?9?9*9?9*9,24.8,21.0,78,98090,0,1366,403,0,0,0,0,0,0,0,180,1.8,6,6,777.7,77777,9,999999999,0,0.0000,0,0,999.000,0.0,99.0
2010,4,4,23,0,?9?9?9?9E0?9?9?9?9*9?9?9?9?9*9?9*9*9?9*_?9?9*9?9*9,24.3,21.0,80,98090,0,1366,397,0,0,0,0,0,0,0,180,1.8,5,5,777.7,77777,9,999999999,0,0.0000,0,0,999.000,0.0,99.0
2010,4,4,24,0,?9?9?9?9E0?9?9?9?9*9?9?9?9?9*9?9*9*9?9*_?9?9*9?9*9,23.8,20.8,83,98090,0,1366,394,0,0,0,0,0,0,0,180,1.7,5,5,777.7,77777,9,999999999,0,0.0000,0,0,999.000,0.0,99.0
2010,4,5,1,0,?9?9?9?9E0?9?9?9?9*9?9?9?9?9*9?9*9*9?9*_?9?9*9?9*9,23.6,20.8,84,98090,0,1366,390,0,0,0,0,0,0,0,180,1.7,4,4,777.7,77777,9,999999999,0,0.0000,0,0,999.000,0.0,99.0
2010,4,5,2,0,?9?9?9?9E0?9?9?9?9*9?9?9?9?9*9?9*9*9?9*_?9?9*9?9*9,23.4,20.8,85,98090,0,1366,385,0,0,0,0,0,0,0,180,1.7,3,3,777.7,77777,9,999999999,0,0.0000,0,0,999.000,0.0,99.0
2010,4,5,3,0,?9?9?9?9E0?9?9?9?9*9?9?9?9?9*9?9*9*9?9*_?9?9*9?9*9,23.1,20.8,86,98090,0,1366,384,0,0,0,0,0,0,0,180,1.7,3,3,777.7,77777,9,999999999,0,0.0000,0,0,999.000,0.0,99.0
2010,4,5,4,0,?9?9?9?9E0?9?9?9?9*9?9?9?9?9*9?9*9*9?9*_?9?9*9?9*9,22.9,20.8,88,98090,0,1365,379,0,0,0,0,0,0,0,180,1.7,2,2,777.7,77777,9,999999999,0,0.0000,0,0,999.000,0.0,99.0
2010,4,5,5,0,?9?9?9?9E0?9?9?9?9*9?9?9?9?9*9?9*9*9?9*_?9?9*9?9*9,22.6,20.8,89,98090,0,1365,378,0,0,0,0,0,0,0,180,1.7,2,2,777.7,77777,9,999999999,0,0.0000,0,0,999.000,0.0,99.0
2010,4,5,6,0,?9?9?9?9E0?9?9?9?9*9?9?9?9?9*9?9*9*9?9*_?9?9*9?9*9,22.5,20.8,90,98090,0,1365,372,0,0,0,0,0,0,0,180,1.7,1,1,777.7,77777,9,999999999,0,0.0000,0,0,999.000,0.0,99.0
2010,4,5,7,0,?9?9?9?9E0?9?9?9?9*9?9?9?9?9*9?9*9*9?9*_?9?9*9?9*9,22.3,20.8,91,98090,171,1365,371,2,0,2,209,0,191,4,180,1.7,1,1,777.7,77777,9,999999999,0,0.0000,0,0,999.000,0.0,99.0
2010,4,5,8,0,?9?9?9?9E0?9?9?9?9*9?9?9?9?9*9?9*9*9?9*_?9?9*9?9*9,22.1,20.8,92,98090,484,1365,363,287,214,211,34404,20356,23193,190,180,1.7,0,0,777.7,77777,9,999999999,0,0.0000,0,0,999.000,0.0,99.0
2010,4,5,9,0,?9?9?9?9E0?9?9?9?9*9?9?9?9?9*9?9*9*9?9*_?9?9*9?9*9,25.7,20.8,74,98090,762,1365,381,460,472,197,55234,44802,21697,113,180,1.7,0,0,777.7,77777,9,999999999,0,0.0000,0,0,999.000,0.0,99.0
2010,4,5,10,0,?9?9?9?9E0?9?9?9?9*9?9?9?9?9*9?9*9*9?9*_?9?9*9?9*9,26.9,20.8,69,98090,984,1365,388,770,650,302,92446,61756,33196,133,180,1.8,0,0,777.7,77777,9,999999999,0,0.0000,0,0,999.000,0.0,99.0
2010,4,5,11,0,?9?9?9?9E0?9?9?9?9*9?9?9?9?9*9?9*9*9?9*_?9?9*9?9*9,27.5,20.8,67,98090,1136,1365,403,727,477,330,87221,45343,36261,126,180,2.5,2,2,777.7,77777,9,999999999,0,0.0000,0,0,999.000,0.0,99.0
2010,4,5,12,0,?9?9?9?9E0?9?9?9?9*9?9?9?9?9*9?9*9*9?9*_?9?9*9?9*9,27.5,20.8,67,98090,1207,1365,422,560,143,434,67195,13538,47736,156,180,2.8,7,7,777.7,77777,9,999999999,0,0.0000,0,0,999.000,0.0,99.0
2010,4,5,13,0,?9?9?9?9E0?9?9?9?9*9?9?9?9?9*9?9*9*9?9*_?9?9*9?9*9,27.0,20.8,68,98090,1192,1365,427,413,60,361,49566,5707,39665,131,180,3.7,8,8,777.7,77777,9,999999999,0,0.0000,0,0,999.000,0.0,99.0
2010,4,5,14,0,?9?9?9?9E0?9?9?9?9*9?9?9?9?9*9?9*9*9?9*_?9?9*9?9*9,26.2,20.8,72,98090,1092,1365,422,155,3,153,18652,307,16813,61,180,4.3,8,8,777.7,77777,9,999999999,0,0.0000,0,0,999.000,0.0,99.0
2010,4,5,15,0,?9?9?9?9E0?9?9?9?9*9?9?9?9?9*9?9*9*9?9*_?9?9*9?9*9,25.7,20.8,74,98090,915,1365,419,243,24,227,29132,2250,24960,108,180,4.2,8,8,777.7,77777,9,999999999,0,0.0000,0,0,999.000,0.0,99.0
2010,4,5,16,0,?9?9?9?9E0?9?9?9?9*9?9?9?9?9*9?9*9*9?9*_?9?9*9?9*9,25.5,20.8,80,98090,671,1365,411,353,285,213,42330,27050,23417,138,180,3.7,7,7,777.7,77777,9,999999999,0,0.0000,0,0,999.000,0.0,99.0
2010,4,5,17,0,?9?9?9?9E0?9?9?9?9*9?9?9?9?9*9?9*9*9?9*_?9?9*9?9*9,25.1,20.8,86,98090,379,1365,416,207,405,95,24796,38482,10409,109,180,3.5,8,8,777.7,77777,9,999999999,4,0.0000,0,0,999.000,4.6,99.0
2010,4,5,18,0,?9?9?9?9E0?9?9?9?9*9?9?9?9?9*9?9*9*9?9*_?9?9*9?9*9,24.6,20.8,84,98090,61,1365,413,53,0,53,6358,0,5828,419,180,3.1,8,8,777.7,77777,9,999999999,0,0.0000,0,0,999.000,0.1,99.0
2010,4,5,19,0,?9?9?9?9E0?9?9?9?9*9?9?9?9?9*9?9*9*9?9*_?9?9*9?9*9,24.3,20.8,85,98090,0,1365,411,0,0,0,0,0,0,0,180,2.2,8,8,777.7,77777,9,999999999,0,0.0000,0,0,999.000,0.2,99.0
2010,4,5,20,0,?9?9?9?9E0?9?9?9?9*9?9?9?9?9*9?9*9*9?9*_?9?9*9?9*9,24.0,20.8,87,98090,0,1365,409,0,0,0,0,0,0,0,180,1.9,8,8,777.7,77777,9,999999999,0,0.0000,0,0,999.000,0.0,99.0
2010,4,5,21,0,?9?9?9?9E0?9?9?9?9*9?9?9?9?9*9?9*9*9?9*_?9?9*9?9*9,23.7,20.8,88,98090,0,1365,408,0,0,0,0,0,0,0,180,1.7,8,8,777.7,77777,9,999999999,0,0.0000,0,0,999.000,0.0,99.0
2010,4,5,22,0,?9?9?9?9E0?9?9?9?9*9?9?9?9?9*9?9*9*9?9*_?9?9*9?9*9,23.4,20.8,90,98090,0,1365,400,0,0,0,0,0,0,0,180,1.7,7,7,777.7,77777,9,999999999,0,0.0000,0,0,999.000,0.1,99.0
2010,4,5,23,0,?9?9?9?9E0?9?9?9?9*9?9?9?9?9*9?9*9*9?9*_?9?9*9?9*9,23.1,20.8,87,98090,0,1365,398,0,0,0,0,0,0,0,180,1.7,7,7,777.7,77777,9,999999999,0,0.0000,0,0,999.000,0.0,99.0
2010,4,5,24,0,?9?9?9?9E0?9?9?9?9*9?9?9?9?9*9?9*9*9?9*_?9?9*9?9*9,22.8,20.1,84,98090,0,1365,395,0,0,0,0,0,0,0,180,1.6,7,7,777.7,77777,9,999999999,0,0.0000,0,0,999.000,0.0,99.0
2010,4,6,1,0,?9?9?9?9E0?9?9?9?9*9?9?9?9?9*9?9*9*9?9*_?9?9*9?9*9,22.6,20.1,85,98090,0,1365,395,0,0,0,0,0,0,0,180,1.6,7,7,777.7,77777,9,999999999,0,0.0000,0,0,999.000,0.0,99.0
2010,4,6,2,0,?9?9?9?9E0?9?9?9?9*9?9?9?9?9*9?9*9*9?9*_?9?9*9?9*9,22.4,20.1,86,98090,0,1365,394,0,0,0,0,0,0,0,180,1.6,7,7,777.7,77777,9,999999999,0,0.0000,0,0,999.000,0.0,99.0
2010,4,6,3,0,?9?9?9?9E0?9?9?9?9*9?9?9?9?9*9?9*9*9?9*_?9?9*9?9*9,22.3,20.2,87,98090,0,1365,393,0,0,0,0,0,0,0,180,1.6,7,7,777.7,77777,9,999999999,0,0.0000,0,0,999.000,0.0,99.0
2010,4,6,4,0,?9?9?9?9E0?9?9?9?9*9?9?9?9?9*9?9*9*9?9*_?9?9*9?9*9,22.1,20.2,88,98090,0,1364,392,0,0,0,0,0,0,0,180,1.6,7,7,777.7,77777,9,999999999,0,0.0000,0,0,999.000,0.0,99.0
2010,4,6,5,0,?9?9?9?9E0?9?9?9?9*9?9?9?9?9*9?9*9*9?9*_?9?9*9?9*9,22.0,20.2,89,98090,0,1364,387,0,0,0,0,0,0,0,180,1.6,6,6,777.7,77777,9,999999999,0,0.0000,0,0,999.000,0.0,99.0
2010,4,6,6,0,?9?9?9?9E0?9?9?9?9*9?9?9?9?9*9?9*9*9?9*_?9?9*9?9*9,21.9,20.3,90,98090,0,1364,386,0,0,0,0,0,0,0,180,1.6,6,6,777.7,77777,9,999999999,0,0.0000,0,0,999.000,0.0,99.0
2010,4,6,7,0,?9?9?9?9E0?9?9?9?9*9?9?9?9?9*9?9*9*9?9*_?9?9*9?9*9,21.8,20.3,91,98090,169,1364,386,1,0,1,85,0,78,2,180,1.6,6,6,777.7,77777,9,999999999,0,0.0000,0,0,999.000,0.0,99.0
2010,4,6,8,0,?9?9?9?9E0?9?9?9?9*9?9?9?9?9*9?9*9*9?9*_?9?9*9?9*9,21.6,20.3,92,98090,482,1364,385,164,71,139,19675,6761,15277,125,180,1.6,6,6,777.7,77777,9,999999999,0,0.0000,0,0,999.000,0.0,99.0
2010,4,6,9,0,?9?9?9?9E0?9?9?9?9*9?9?9?9?9*9?9*9*9?9*_?9?9*9?9*9,25.3,19.6,70,98090,759,1364,378,431,382,218,51678,36333,23989,125,180,1.6,0,0,777.7,77777,9,999999999,0,0.0000,0,0,999.000,0.0,99.0
2010,4,6,10,0,?9?9?9?9E0?9?9?9?9*9?9?9?9?9*9?9*9*9?9*_?9?9*9?9*9,26.3,19.4,65,98090,980,1364,402,535,293,324,64172,27848,35654,144,180,2.1,4,4,777.7,77777,9,999999999,0,0.0000,0,0,999.000,0.0,99.0
2010,4,6,11,0,?9?9?9?9E0?9?9?9?9*9?9?9?9?9*9?9*9*9?9*_?9?9*9?9*9,27.2,19.2,61,98090,1132,1364,404,699,437,336,83846,41485,37012,129,180,2.5,3,3,777.7,77777,9,999999999,0,0.0000,0,0,999.000,0.0,99.0
2010,4,6,12,0,?9?9?9?9E0?9?9?9?9*9?9?9?9?9*9?9*9*9?9*_?9?9*9?9*9,27.8,19.1,59,98090,1202,1364,413,670,274,429,80398,26029,47139,155,180,3.3,5,5,777.7,77777,9,999999999,0,0.0000,0,0,999.000,0.0,99.0
2010,4,6,13,0,?9?9?9?9E0?9?9?9?9*9?9?9?9?9*9?9*9*9?9*_?9?9*9?9*9,28.1,19.0,57,98090,1187,1364,415,688,321,408,82506,30495,44912,149,180,3.9,5,5,777.7,77777,9,999999999,0,0.0000,0,0,999.000,0.0,99.0
2010,4,6,14,0,?9?9?9?9E0?9?9?9?9*9?9?9?9?9*9?9*9*9?9*_?9?9*9?9*9,28.2,19.0,62,98090,1087,1364,424,559,234,372,67054,22223,40967,149,180,4.7,7,7,777.7,77777,9,999999999,0,0.0000,0,0,999.000,0.0,99.0
2010,4,6,15,0,?9?9?9?9E0?9?9?9?9*9?9?9?9?9*9?9*9*9?9*_?9?9*9?9*9,28.3,19.0,57,98090,909,1364,416,596,580,210,71526,55065,23090,100,180,4.9,5,5,777.7,77777,9,999999999,0,0.0000,0,0,999.000,0.0,99.0
2010,4,6,16,0,?9?9?9?9E0?9?9?9?9*9?9?9?9?9*9?9*9*9?9*_?9?9*9?9*9,28.1,19.0,58,98090,666,1364,415,441,756,73,52955,71822,7999,47,180,4.1,5,5,777.7,77777,9,999999999,0,0.0000,0,0,999.000,0.0,99.0
2010,4,6,17,0,?9?9?9?9E0?9?9?9?9*9?9?9?9?9*9?9*9*9?9*_?9?9*9?9*9,27.4,19.2,65,98090,373,1364,420,225,593,63,26986,56370,6931,74,180,3.5,7,7,777.7,77777,9,999999999,0,0.0000,0,0,999.000,0.0,99.0
2010,4,6,18,0,?9?9?9?9E0?9?9?9?9*9?9?9?9?9*9?9*9*9?9*_?9?9*9?9*9,26.5,19.3,69,98090,57,1364,422,37,0,37,4460,0,4089,323,180,2.8,8,8,777.7,77777,9,999999999,0,0.0000,0,0,999.000,0.2,99.0
2010,4,6,19,0,?9?9?9?9E0?9?9?9?9*9?9?9?9?9*9?9*9*9?9*_?9?9*9?9*9,26.0,19.5,72,98090,0,1364,419,0,0,0,0,0,0,0,180,1.6,8,8,777.7,77777,9,999999999,0,0.0000,0,0,999.000,0.3,99.0
2010,4,6,20,0,?9?9?9?9E0?9?9?9?9*9?9?9?9?9*9?9*9*9?9*_?9?9*9?9*9,25.5,19.5,84,98090,0,1364,416,0,0,0,0,0,0,0,180,1.6,8,8,777.7,77777,9,999999999,6,0.0000,0,0,999.000,6.3,99.0
2010,4,6,21,0,?9?9?9?9E0?9?9?9?9*9?9?9?9?9*9?9*9*9?9*_?9?9*9?9*9,25.0,19.7,77,98090,0,1364,413,0,0,0,0,0,0,0,180,1.6,8,8,777.7,77777,9,999999999,0,0.0000,0,0,999.000,0.1,99.0
2010,4,6,22,0,?9?9?9?9E0?9?9?9?9*9?9?9?9?9*9?9*9*9?9*_?9?9*9?9*9,24.5,19.8,80,98090,0,1364,411,0,0,0,0,0,0,0,180,1.6,8,8,777.7,77777,9,999999999,0,0.0000,0,0,999.000,0.1,99.0
2010,4,6,23,0,?9?9?9?9E0?9?9?9?9*9?9?9?9?9*9?9*9*9?9*_?9?9*9?9*9,23.9,19.9,83,98090,0,1364,408,0,0,0,0,0,0,0,180,1.6,8,8,777.7,77777,9,999999999,0,0.0000,0,0,999.000,0.0,99.0
2010,4,6,24,0,?9?9?9?9E0?9?9?9?9*9?9?9?9?9*9?9*9*9?9*_?9?9*9?9*9,23.4,19.8,85,98090,0,1364,405,0,0,0,0,0,0,0,180,2.3,8,8,777.7,77777,9,999999999,0,0.0000,0,0,999.000,0.1,99.0
2010,4,7,1,0,?9?9?9?9E0?9?9?9?9*9?9?9?9?9*9?9*9*9?9*_?9?9*9?9*9,23.1,19.8,81,98090,0,1364,404,0,0,0,0,0,0,0,180,2.3,8,8,777.7,77777,9,999999999,0,0.0000,0,0,999.000,0.0,99.0
2010,4,7,2,0,?9?9?9?9E0?9?9?9?9*9?9?9?9?9*9?9*9*9?9*_?9?9*9?9*9,22.9,19.9,83,98090,0,1364,402,0,0,0,0,0,0,0,180,2.3,8,8,777.7,77777,9,999999999,0,0.0000,0,0,999.000,0.0,99.0
2010,4,7,3,0,?9?9?9?9E0?9?9?9?9*9?9?9?9?9*9?9*9*9?9*_?9?9*9?9*9,22.6,19.9,84,98090,0,1364,401,0,0,0,0,0,0,0,180,2.3,8,8,777.7,77777,9,999999999,0,0.0000,0,0,999.000,0.0,99.0
2010,4,7,4,0,?9?9?9?9E0?9?9?9?9*9?9?9?9?9*9?9*9*9?9*_?9?9*9?9*9,22.4,19.9,86,98090,0,1363,399,0,0,0,0,0,0,0,180,2.3,8,8,777.7,77777,9,999999999,0,0.0000,0,0,999.000,0.0,99.0
2010,4,7,5,0,?9?9?9?9E0?9?9?9?9*9?9?9?9?9*9?9*9*9?9*_?9?9*9?9*9,22.1,20.0,87,98090,0,1363,398,0,0,0,0,0,0,0,180,2.3,8,8,777.7,77777,9,999999999,0,0.0000,0,0,999.000,0.0,99.0
2010,4,7,6,0,?9?9?9?9E0?9?9?9?9*9?9?9?9?9*9?9*9*9?9*_?9?9*9?9*9,21.9,20.0,88,98090,0,1363,397,0,0,0,0,0,0,0,180,2.3,8,8,777.7,77777,9,999999999,0,0.0000,0,0,999.000,0.0,99.0
2010,4,7,7,0,?9?9?9?9E0?9?9?9?9*9?9?9?9?9*9?9*9*9?9*_?9?9*9?9*9,21.7,20.0,89,98090,168,1363,396,0,0,0,6,0,6,0,180,2.3,8,8,777.7,77777,9,999999999,0,0.0000,0,0,999.000,0.0,99.0
2010,4,7,8,0,?9?9?9?9E0?9?9?9?9*9?9?9?9?9*9?9*9*9?9*_?9?9*9?9*9,21.6,20.0,91,98090,479,1363,395,62,0,62,7385,0,6769,56,180,2.3,8,8,777.7,77777,9,999999999,0,0.0000,0,0,999.000,0.0,99.0
2010,4,7,9,0,?9?9?9?9E0?9?9?9?9*9?9?9?9?9*9?9*9*9?9*_?9?9*9?9*9,23.8,19.8,78,98090,755,1363,407,155,0,155,18559,0,17013,89,180,2.3,8,8,777.7,77777,9,999999999,0,0.0000,0,0,999.000,0.0,99.0
2010,4,7,10,0,?9?9?9?9E0?9?9?9?9*9?9?9?9?9*9?9*9*9?9*_?9?9*9?9*9,24.6,19.7,73,98090,977,1363,411,237,6,232,28438,617,25556,103,180,2.3,8,8,777.7,77777,9,999999999,0,0.0000,0,0,999.000,0.0,99.0
2010,4,7,11,0,?9?9?9?9E0?9?9?9?9*9?9?9?9?9*9?9*9*9?9*_?9?9*9?9*9,25.4,19.6,70,98090,1127,1363,416,299,14,287,35909,1352,31622,111,180,2.3,8,8,777.7,77777,9,999999999,0,0.0000,0,0,999.000,0.0,99.0
2010,4,7,12,0,?9?9?9?9E0?9?9?9?9*9?9?9?9?9*9?9*9*9?9*_?9?9*9?9*9,26.0,19.5,72,98090,1197,1363,419,336,23,316,40361,2175,34786,115,180,2.3,8,8,777.7,77777,9,999999999,0,0.0000,0,0,999.000,0.0,99.0
2010,4,7,13,0,?9?9?9?9E0?9?9?9?9*9?9?9?9?9*9?9*9*9?9*_?9?9*9?9*9,26.4,19.4,65,98090,1182,1363,421,345,25,323,41456,2416,35577,119,180,2.3,8,8,777.7,77777,9,999999999,0,0.0000,0,0,999.000,0.0,99.0
2010,4,7,14,0,?9?9?9?9E0?9?9?9?9*9?9?9?9?9*9?9*9*9?9*_?9?9*9?9*9,26.7,19.4,64,98090,1081,1363,423,326,28,304,39115,2669,33404,122,180,2.3,8,8,777.7,77777,9,999999999,0,0.0000,0,0,999.000,0.0,99.0
2010,4,7,15,0,?9?9?9?9E0?9?9?9?9*9?9?9?9?9*9?9*9*9?9*_?9?9*9?9*9,26.8,19.4,64,98090,903,1363,423,279,16,269,33509,1538,29537,129,180,2.3,8,8,777.7,77777,9,999999999,0,0.0000,0,0,999.000,0.0,99.0
2010,4,7,16,0,?9?9?9?9E0?9?9?9?9*9?9?9?9?9*9?9*9*9?9*_?9?9*9?9*9,26.6,19.4,69,98090,660,1363,422,209,40,190,25072,3787,20861,125,180,2.3,8,8,777.7,77777,9,999999999,0,0.0000,0,0,999.000,0.0,99.0
2010,4,7,17,0,?9?9?9?9E0?9?9?9?9*9?9?9?9?9*9?9*9*9?9*_?9?9*9?9*9,26.1,19.5,71,98090,368,1363,419,121,65,104,14542,6192,11401,123,180,2.3,8,8,777.7,77777,9,999999999,0,0.0000,0,0,999.000,0.0,99.0
2010,4,7,18,0,?9?9?9?9E0?9?9?9?9*9?9?9?9?9*9?9*9*9?9*_?9?9*9?9*9,25.5,19.5,74,98090,52,1363,416,29,0,29,3534,0,3240,283,180,2.3,8,8,777.7,77777,9,999999999,0,0.0000,0,0,999.000,0.3,99.0
2010,4,7,19,0,?9?9?9?9E0?9?9?9?9*9?9?9?9?9*9?9*9*9?9*_?9?9*9?9*9,25.0,19.6,86,98090,0,1363,414,0,0,0,0,0,0,0,180,2.3,8,8,777.7,77777,9,999999999,9,0.0000,0,0,999.000,9.6,99.0
2010,4,7,20,0,?9?9?9?9E0?9?9?9?9*9?9?9?9?9*9?9*9*9?9*_?9?9*9?9*9,24.6,19.7,79,98090,0,1363,411,0,0,0,0,0,0,0,180,2.3,8,8,777.7,77777,9,999999999,0,0.0000,0,0,999.000,0.6,99.0
2010,4,7,21,0,?9?9?9?9E0?9?9?9?9*9?9?9?9?9*9?9*9*9?9*_?9?9*9?9*9,24.1,19.7,81,98090,0,1363,409,0,0,0,0,0,0,0,180,2.3,8,8,777.7,77777,9,999999999,0,0.0000,0,0,999.000,0.1,99.0
2010,4,7,22,0,?9?9?9?9E0?9?9?9?9*9?9?9?9?9*9?9*9*9?9*_?9?9*9?9*9,23.7,19.8,83,98090,0,1363,400,0,0,0,0,0,0,0,180,2.3,7,7,777.7,77777,9,999999999,0,0.0000,0,0,999.000,0.1,99.0
2010,4,7,23,0,?9?9?9?9E0?9?9?9?9*9?9?9?9?9*9?9*9*9?9*_?9?9*9?9*9,23.2,19.8,86,98090,0,1363,397,0,0,0,0,0,0,0,180,2.3,7,7,777.7,77777,9,999999999,0,0.0000,0,0,999.000,0.2,99.0
2010,4,7,24,0,?9?9?9?9E0?9?9?9?9*9?9?9?9?9*9?9*9*9?9*_?9?9*9?9*9,22.8,18.7,77,98090,0,1363,394,0,0,0,0,0,0,0,180,1.9,7,7,777.7,77777,9,999999999,0,0.0000,0,0,999.000,0.0,99.0
2010,4,8,1,0,?9?9?9?9E0?9?9?9?9*9?9?9?9?9*9?9*9*9?9*_?9?9*9?9*9,22.5,18.7,79,98090,0,1363,392,0,0,0,0,0,0,0,180,1.9,7,7,777.7,77777,9,999999999,0,0.0000,0,0,999.000,0.0,99.0
2010,4,8,2,0,?9?9?9?9E0?9?9?9?9*9?9?9?9?9*9?9*9*9?9*_?9?9*9?9*9,22.3,18.7,80,98090,0,1363,391,0,0,0,0,0,0,0,180,1.9,7,7,777.7,77777,9,999999999,0,0.0000,0,0,999.000,0.0,99.0
2010,4,8,3,0,?9?9?9?9E0?9?9?9?9*9?9?9?9?9*9?9*9*9?9*_?9?9*9?9*9,22.1,18.8,81,98090,0,1363,390,0,0,0,0,0,0,0,180,1.9,7,7,777.7,77777,9,999999999,0,0.0000,0,0,999.000,0.0,99.0
2010,4,8,4,0,?9?9?9?9E0?9?9?9?9*9?9?9?9?9*9?9*9*9?9*_?9?9*9?9*9,21.8,18.8,82,98090,0,1362,389,0,0,0,0,0,0,0,180,1.9,7,7,777.7,77777,9,999999999,0,0.0000,0,0,999.000,0.0,99.0
2010,4,8,5,0,?9?9?9?9E0?9?9?9?9*9?9?9?9?9*9?9*9*9?9*_?9?9*9?9*9,21.6,18.8,84,98090,0,1362,383,0,0,0,0,0,0,0,180,1.9,6,6,777.7,77777,9,999999999,0,0.0000,0,0,999.000,0.0,99.0
2010,4,8,6,0,?9?9?9?9E0?9?9?9?9*9?9?9?9?9*9?9*9*9?9*_?9?9*9?9*9,21.4,18.8,85,98090,0,1362,382,0,0,0,0,0,0,0,180,1.9,6,6,777.7,77777,9,999999999,0,0.0000,0,0,999.000,0.0,99.0
2010,4,8,7,0,?9?9?9?9E0?9?9?9?9*9?9?9?9?9*9?9*9*9?9*_?9?9*9?9*9,21.3,18.8,85,98090,166,1362,382,0,0,0,0,0,0,0,180,1.9,6,6,777.7,77777,9,999999999,0,0.0000,0,0,999.000,0.0,99.0
2010,4,8,8,0,?9?9?9?9E0?9?9?9?9*9?9?9?9?9*9?9*9*9?9*_?9?9*9?9*9,21.1,18.9,86,98090,477,1362,381,158,66,135,18926,6286,14808,123,180,1.9,6,6,777.7,77777,9,999999999,0,0.0000,0,0,999.000,0.0,99.0
2010,4,8,9,0,?9?9?9?9E0?9?9?9?9*9?9?9?9?9*9?9*9*9?9*_?9?9*9?9*9,24.2,18.5,70,98090,752,1362,387,391,280,236,46904,26578,26013,136,180,1.9,3,3,777.7,77777,9,999999999,0,0.0000,0,0,999.000,0.0,99.0
2010,4,8,10,0,?9?9?9?9E0?9?9?9?9*9?9?9?9?9*9?9*9*9?9*_?9?9*9?9*9,25.4,18.4,65,98090,973,1362,377,597,462,267,71623,43896,29368,119,180,1.9,0,0,777.7,77777,9,999999999,0,0.0000,0,0,999.000,0.0,99.0
2010,4,8,11,0,?9?9?9?9E0?9?9?9?9*9?9?9?9?9*9?9*9*9?9*_?9?9*9?9*9,26.4,18.3,61,98090,1123,1362,382,739,561,277,88694,53255,30479,107,180,2.1,0,0,777.7,77777,9,999999999,0,0.0000,0,0,999.000,0.0,99.0
2010,4,8,12,0,?9?9?9?9E0?9?9?9?9*9?9?9?9?9*9?9*9*9?9*_?9?9*9?9*9,27.0,18.2,58,98090,1192,1362,402,770,510,323,92347,48491,35512,117,180,2.3,3,3,777.7,77777,9,999999999,0,0.0000,0,0,999.000,0.0,99.0
2010,4,8,13,0,?9?9?9?9E0?9?9?9?9*9?9?9?9?9*9?9*9*9?9*_?9?9*9?9*9,27.5,18.1,56,98090,1176,1362,400,818,588,310,98131,55892,34077,114,180,2.8,2,2,777.7,77777,9,999999999,0,0.0000,0,0,999.000,0.0,99.0
2010,4,8,14,0,?9?9?9?9E0?9?9?9?9*9?9?9?9?9*9?9*9*9?9*_?9?9*9?9*9,27.9,18.1,55,98090,1076,1362,402,766,744,179,91939,70693,19644,72,180,4.4,2,2,777.7,77777,9,999999999,0,0.0000,0,0,999.000,0.0,99.0
2010,4,8,15,0,?9?9?9?9E0?9?9?9?9*9?9?9?9?9*9?9*9*9?9*_?9?9*9?9*9,27.9,18.1,55,98090,898,1362,406,643,849,84,77130,80622,9196,40,180,4.7,3,3,777.7,77777,9,999999999,0,0.0000,0,0,999.000,0.0,99.0
2010,4,8,16,0,?9?9?9?9E0?9?9?9?9*9?9?9?9?9*9?9*9*9?9*_?9?9*9?9*9,27.6,18.1,56,98090,655,1362,408,470,765,103,56400,72637,11323,68,180,4.1,4,4,777.7,77777,9,999999999,0,0.0000,0,0,999.000,0.0,99.0
2010,4,8,17,0,?9?9?9?9E0?9?9?9?9*9?9?9?9?9*9?9*9*9?9*_?9?9*9?9*9,27.0,18.2,58,98090,363,1362,411,264,457,143,31721,43442,15725,171,180,3.4,6,6,777.7,77777,9,999999999,0,0.0000,0,0,999.000,0.0,99.0
2010,4,8,18,0,?9?9?9?9E0?9?9?9?9*9?9?9?9?9*9?9*9*9?9*_?9?9*9?9*9,26.1,18.3,62,98090,47,1362,418,58,0,58,6919,0,6343,621,180,3.0,8,8,777.7,77777,9,999999999,0,0.0000,0,0,999.000,0.0,99.0
2010,4,8,19,0,?9?9?9?9E0?9?9?9?9*9?9?9?9?9*9?9*9*9?9*_?9?9*9?9*9,25.6,18.4,64,98090,0,1362,415,0,0,0,0,0,0,0,180,1.9,8,8,777.7,77777,9,999999999,0,0.0000,0,0,999.000,0.0,99.0
2010,4,8,20,0,?9?9?9?9E0?9?9?9?9*9?9?9?9?9*9?9*9*9?9*_?9?9*9?9*9,25.0,18.4,66,98090,0,1362,412,0,0,0,0,0,0,0,180,1.9,8,8,777.7,77777,9,999999999,0,0.0000,0,0,999.000,0.0,99.0
2010,4,8,21,0,?9?9?9?9E0?9?9?9?9*9?9?9?9?9*9?9*9*9?9*_?9?9*9?9*9,24.5,18.5,69,98090,0,1362,409,0,0,0,0,0,0,0,180,1.9,8,8,777.7,77777,9,999999999,0,0.0000,0,0,999.000,0.0,99.0
2010,4,8,22,0,?9?9?9?9E0?9?9?9?9*9?9?9?9?9*9?9*9*9?9*_?9?9*9?9*9,24.0,18.5,71,98090,0,1362,406,0,0,0,0,0,0,0,180,1.9,8,8,777.7,77777,9,999999999,0,0.0000,0,0,999.000,0.0,99.0
2010,4,8,23,0,?9?9?9?9E0?9?9?9?9*9?9?9?9?9*9?9*9*9?9*_?9?9*9?9*9,23.5,18.6,74,98090,0,1362,404,0,0,0,0,0,0,0,180,1.9,8,8,777.7,77777,9,999999999,0,0.0000,0,0,999.000,0.0,99.0
2010,4,8,24,0,?9?9?9?9E0?9?9?9?9*9?9?9?9?9*9?9*9*9?9*_?9?9*9?9*9,22.9,19.5,80,98090,0,1362,402,0,0,0,0,0,0,0,180,1.2,8,8,777.7,77777,9,999999999,0,0.0000,0,0,999.000,0.0,99.0
2010,4,9,1,0,?9?9?9?9E0?9?9?9?9*9?9?9?9?9*9?9*9*9?9*_?9?9*9?9*9,22.7,19.5,82,98090,0,1362,400,0,0,0,0,0,0,0,180,1.2,8,8,777.7,77777,9,999999999,0,0.0000,0,0,999.000,0.0,99.0
2010,4,9,2,0,?9?9?9?9E0?9?9?9?9*9?9?9?9?9*9?9*9*9?9*_?9?9*9?9*9,22.4,19.4,83,98090,0,1362,393,0,0,0,0,0,0,0,180,1.2,7,7,777.7,77777,9,999999999,0,0.0000,0,0,999.000,0.0,99.0
2010,4,9,3,0,?9?9?9?9E0?9?9?9?9*9?9?9?9?9*9?9*9*9?9*_?9?9*9?9*9,22.1,19.4,84,98090,0,1362,391,0,0,0,0,0,0,0,180,1.2,7,7,777.7,77777,9,999999999,0,0.0000,0,0,999.000,0.0,99.0
2010,4,9,4,0,?9?9?9?9E0?9?9?9?9*9?9?9?9?9*9?9*9*9?9*_?9?9*9?9*9,21.9,19.4,85,98090,0,1362,390,0,0,0,0,0,0,0,180,1.2,7,7,777.7,77777,9,999999999,0,0.0000,0,0,999.000,0.0,99.0
2010,4,9,5,0,?9?9?9?9E0?9?9?9?9*9?9?9?9?9*9?9*9*9?9*_?9?9*9?9*9,21.6,19.4,87,98090,0,1362,388,0,0,0,0,0,0,0,180,1.2,7,7,777.7,77777,9,999999999,0,0.0000,0,0,999.000,0.0,99.0
2010,4,9,6,0,?9?9?9?9E0?9?9?9?9*9?9?9?9?9*9?9*9*9?9*_?9?9*9?9*9,21.4,19.4,88,98090,0,1362,387,0,0,0,0,0,0,0,180,1.2,7,7,777.7,77777,9,999999999,0,0.0000,0,0,999.000,0.0,99.0
2010,4,9,7,0,?9?9?9?9E0?9?9?9?9*9?9?9?9?9*9?9*9*9?9*_?9?9*9?9*9,21.2,19.4,89,98090,164,1362,386,0,0,0,0,0,0,0,180,1.2,7,7,777.7,77777,9,999999999,0,0.0000,0,0,999.000,0.0,99.0
2010,4,9,8,0,?9?9?9?9E0?9?9?9?9*9?9?9?9?9*9?9*9*9?9*_?9?9*9?9*9,21.0,19.3,90,98090,474,1362,385,144,40,130,17294,3807,14322,119,180,1.2,7,7,777.7,77777,9,999999999,0,0.0000,0,0,999.000,0.0,99.0
2010,4,9,9,0,?9?9?9?9E0?9?9?9?9*9?9?9?9?9*9?9*9*9?9*_?9?9*9?9*9,24.0,19.5,76,98090,749,1362,390,367,216,249,44078,20496,27356,144,180,1.8,4,4,777.7,77777,9,999999999,0,0.0000,0,0,999.000,0.0,99.0
2010,4,9,10,0,?9?9?9?9E0?9?9?9?9*9?9?9?9?9*9?9*9*9?9*_?9?9*9?9*9,25.1,19.6,71,98090,969,1362,393,561,367,300,67298,34833,32991,134,180,2.9,3,3,777.7,77777,9,999999999,0,0.0000,0,0,999.000,0.0,99.0
2010,4,9,11,0,?9?9?9?9E0?9?9?9?9*9?9?9?9?9*9?9*9*9?9*_?9?9*9?9*9,26.1,19.7,67,98090,1119,1362,390,718,508,301,86214,48298,33088,117,180,3.6,1,1,777.7,77777,9,999999999,0,0.0000,0,0,999.000,0.0,99.0
2010,4,9,12,0,?9?9?9?9E0?9?9?9?9*9?9?9?9?9*9?9*9*9?9*_?9?9*9?9*9,27.0,19.8,64,98090,1188,1362,394,805,557,320,96648,52908,35165,117,180,4.1,1,1,777.7,77777,9,999999999,0,0.0000,0,0,999.000,0.0,99.0
2010,4,9,13,0,?9?9?9?9E0?9?9?9?9*9?9?9?9?9*9?9*9*9?9*_?9?9*9?9*9,27.6,19.8,62,98090,1171,1362,390,842,672,264,100997,63793,29051,98,180,4.4,0,0,777.7,77777,9,999999999,0,0.0000,0,0,999.000,0.0,99.0
2010,4,9,14,0,?9?9?9?9E0?9?9?9?9*9?9?9?9?9*9?9*9*9?9*_?9?9*9?9*9,28.0,19.8,61,98090,1071,1362,392,805,843,142,96541,80087,15602,57,180,4.3,0,0,777.7,77777,9,999999999,0,0.0000,0,0,999.000,0.0,99.0
2010,4,9,15,0,?9?9?9?9E0?9?9?9?9*9?9?9?9?9*9?9*9*9?9*_?9?9*9?9*9,28.1,19.8,60,98090,892,1362,392,684,771,178,82034,73288,19598,87,180,4.8,0,0,777.7,77777,9,999999999,0,0.0000,0,0,999.000,0.0,99.0
2010,4,9,16,0,?9?9?9?9E0?9?9?9?9*9?9?9?9?9*9?9*9*9?9*_?9?9*9?9*9,27.9,19.8,61,98090,649,1362,404,517,769,150,61986,73085,16508,100,180,4.6,2,2,777.7,77777,9,999999999,0,0.0000,0,0,999.000,0.0,99.0
2010,4,9,17,0,?9?9?9?9E0?9?9?9?9*9?9?9?9?9*9?9*9*9?9*_?9?9*9?9*9,27.3,19.8,63,98090,358,1362,405,308,603,150,36962,57307,16511,183,180,3.8,3,3,777.7,77777,9,999999999,0,0.0000,0,0,999.000,0.0,99.0
2010,4,9,18,0,?9?9?9?9E0?9?9?9?9*9?9?9?9?9*9?9*9*9?9*_?9?9*9?9*9,26.4,19.7,66,98090,43,1362,421,76,0,76,9169,0,8405,933,180,3.2,8,8,777.7,77777,9,999999999,0,0.0000,0,0,999.000,0.0,99.0
2010,4,9,19,0,?9?9?9?9E0?9?9?9?9*9?9?9?9?9*9?9*9*9?9*_?9?9*9?9*9,25.8,19.7,68,98090,0,1362,418,0,0,0,0,0,0,0,180,2.4,8,8,777.7,77777,9,999999999,0,0.0000,0,0,999.000,0.0,99.0
2010,4,9,20,0,?9?9?9?9E0?9?9?9?9*9?9?9?9?9*9?9*9*9?9*_?9?9*9?9*9,25.2,19.6,71,98090,0,1362,415,0,0,0,0,0,0,0,180,1.5,8,8,777.7,77777,9,999999999,0,0.0000,0,0,999.000,0.0,99.0
2010,4,9,21,0,?9?9?9?9E0?9?9?9?9*9?9?9?9?9*9?9*9*9?9*_?9?9*9?9*9,24.6,19.6,73,98090,0,1362,405,0,0,0,0,0,0,0,180,1.2,7,7,777.7,77777,9,999999999,0,0.0000,0,0,999.000,0.0,99.0
2010,4,9,22,0,?9?9?9?9E0?9?9?9?9*9?9?9?9?9*9?9*9*9?9*_?9?9*9?9*9,24.1,19.5,75,98090,0,1362,402,0,0,0,0,0,0,0,180,1.2,7,7,777.7,77777,9,999999999,0,0.0000,0,0,999.000,0.0,99.0
2010,4,9,23,0,?9?9?9?9E0?9?9?9?9*9?9?9?9?9*9?9*9*9?9*_?9?9*9?9*9,23.5,19.5,78,98090,0,1362,399,0,0,0,0,0,0,0,180,1.2,7,7,777.7,77777,9,999999999,0,0.0000,0,0,999.000,0.0,99.0
2010,4,9,24,0,?9?9?9?9E0?9?9?9?9*9?9?9?9?9*9?9*9*9?9*_?9?9*9?9*9,22.9,19.1,79,98090,0,1362,395,0,0,0,0,0,0,0,180,1.8,7,7,777.7,77777,9,999999999,0,0.0000,0,0,999.000,0.0,99.0
2010,4,10,1,0,?9?9?9?9E0?9?9?9?9*9?9?9?9?9*9?9*9*9?9*_?9?9*9?9*9,22.6,19.2,80,98090,0,1362,389,0,0,0,0,0,0,0,180,1.8,6,6,777.7,77777,9,999999999,0,0.0000,0,0,999.000,0.0,99.0
2010,4,10,2,0,?9?9?9?9E0?9?9?9?9*9?9?9?9?9*9?9*9*9?9*_?9?9*9?9*9,22.3,19.2,82,98090,0,1362,387,0,0,0,0,0,0,0,180,1.8,6,6,777.7,77777,9,999999999,0,0.0000,0,0,999.000,0.0,99.0
2010,4,10,3,0,?9?9?9?9E0?9?9?9?9*9?9?9?9?9*9?9*9*9?9*_?9?9*9?9*9,22.0,19.2,84,98090,0,1362,386,0,0,0,0,0,0,0,180,1.8,6,6,777.7,77777,9,999999999,0,0.0000,0,0,999.000,0.0,99.0
2010,4,10,4,0,?9?9?9?9E0?9?9?9?9*9?9?9?9?9*9?9*9*9?9*_?9?9*9?9*9,21.7,19.2,85,98090,0,1361,385,0,0,0,0,0,0,0,180,1.8,6,6,777.7,77777,9,999999999,0,0.0000,0,0,999.000,0.0,99.0
2010,4,10,5,0,?9?9?9?9E0?9?9?9?9*9?9?9?9?9*9?9*9*9?9*_?9?9*9?9*9,21.5,19.3,87,98090,0,1361,383,0,0,0,0,0,0,0,180,1.8,6,6,777.7,77777,9,999999999,0,0.0000,0,0,999.000,0.0,99.0
2010,4,10,6,0,?9?9?9?9E0?9?9?9?9*9?9?9?9?9*9?9*9*9?9*_?9?9*9?9*9,21.2,19.3,88,98090,0,1361,379,0,0,0,0,0,0,0,180,1.8,5,5,777.7,77777,9,999999999,0,0.0000,0,0,999.000,0.0,99.0
2010,4,10,7,0,?9?9?9?9E0?9?9?9?9*9?9?9?9?9*9?9*9*9?9*_?9?9*9?9*9,21.0,19.3,89,98090,162,1361,378,0,0,0,0,0,0,0,180,1.8,5,5,777.7,77777,9,999999999,0,0.0000,0,0,999.000,0.0,99.0
2010,4,10,8,0,?9?9?9?9E0?9?9?9?9*9?9?9?9?9*9?9*9*9?9*_?9?9*9?9*9,20.8,19.3,91,98090,471,1361,377,173,103,137,20753,9815,15095,126,180,1.8,5,5,777.7,77777,9,999999999,0,0.0000,0,0,999.000,0.0,99.0
2010,4,10,9,0,?9?9?9?9E0?9?9?9?9*9?9?9?9?9*9?9*9*9?9*_?9?9*9?9*9,24.0,19.0,73,98090,746,1361,371,441,443,198,52956,42125,21823,115,180,1.8,0,0,777.7,77777,9,999999999,0,0.0000,0,0,999.000,0.0,99.0
2010,4,10,10,0,?9?9?9?9E0?9?9?9?9*9?9?9?9?9*9?9*9*9?9*_?9?9*9?9*9,25.3,18.9,67,98090,965,1361,377,680,695,188,81631,65983,20646,84,180,1.9,0,0,777.7,77777,9,999999999,0,0.0000,0,0,999.000,0.0,99.0
2010,4,10,11,0,?9?9?9?9E0?9?9?9?9*9?9?9?9?9*9?9*9*9?9*_?9?9*9?9*9,26.4,18.8,63,98090,1114,1361,383,860,890,131,103199,84550,14442,51,180,1.8,0,0,777.7,77777,9,999999999,0,0.0000,0,0,999.000,0.0,99.0
2010,4,10,12,0,?9?9?9?9E0?9?9?9?9*9?9?9?9?9*9?9*9*9?9*_?9?9*9?9*9,27.3,18.8,59,98090,1183,1361,387,972,771,302,116680,73272,33221,111,180,2.3,0,0,777.7,77777,9,999999999,0,0.0000,0,0,999.000,0.0,99.0
2010,4,10,13,0,?9?9?9?9E0?9?9?9?9*9?9?9?9?9*9?9*9*9?9*_?9?9*9?9*9,28.0,18.7,57,98090,1166,1361,391,1004,797,321,120494,75744,35315,119,180,3.2,0,0,777.7,77777,9,999999999,0,0.0000,0,0,999.000,0.0,99.0
2010,4,10,14,0,?9?9?9?9E0?9?9?9?9*9?9?9?9?9*9?9*9*9?9*_?9?9*9?9*9,28.4,18.7,55,98090,1065,1361,393,955,789,338,114569,74930,37128,137,180,3.2,0,0,777.7,77777,9,999999999,0,0.0000,0,0,999.000,0.0,99.0
2010,4,10,15,0,?9?9?9?9E0?9?9?9?9*9?9?9?9?9*9?9*9*9?9*_?9?9*9?9*9,28.5,18.6,55,98090,887,1361,393,823,797,303,98702,75727,33348,148,180,3.9,0,0,777.7,77777,9,999999999,0,0.0000,0,0,999.000,0.0,99.0
2010,4,10,16,0,?9?9?9?9E0?9?9?9?9*9?9?9?9?9*9?9*9*9?9*_?9?9*9?9*9,28.3,18.7,56,98090,644,1361,392,620,836,225,74389,79377,24746,151,180,4.1,0,0,777.7,77777,9,999999999,0,0.0000,0,0,999.000,0.0,99.0
2010,4,10,17,0,?9?9?9?9E0?9?9?9?9*9?9?9?9?9*9?9*9*9?9*_?9?9*9?9*9,27.6,18.7,58,98090,353,1361,389,363,556,219,43567,52860,24136,271,180,4.4,0,0,777.7,77777,9,999999999,0,0.0000,0,0,999.000,0.0,99.0
2010,4,10,18,0,?9?9?9?9E0?9?9?9?9*9?9?9?9?9*9?9*9*9?9*_?9?9*9?9*9,26.7,18.8,62,98090,39,1361,410,89,0,89,10666,0,9777,1253,180,3.2,6,6,777.7,77777,9,999999999,0,0.0000,0,0,999.000,0.0,99.0
2010,4,10,19,0,?9?9?9?9E0?9?9?9?9*9?9?9?9?9*9?9*9*9?9*_?9?9*9?9*9,26.1,18.9,64,98090,0,1361,408,0,0,0,0,0,0,0,180,2.3,6,6,777.7,77777,9,999999999,0,0.0000,0,0,999.000,0.0,99.0
2010,4,10,20,0,?9?9?9?9E0?9?9?9?9*9?9?9?9?9*9?9*9*9?9*_?9?9*9?9*9,25.6,18.9,66,98090,0,1361,405,0,0,0,0,0,0,0,180,1.8,6,6,777.7,77777,9,999999999,0,0.0000,0,0,999.000,0.0,99.0
2010,4,10,21,0,?9?9?9?9E0?9?9?9?9*9?9?9?9?9*9?9*9*9?9*_?9?9*9?9*9,25.1,19.0,68,98090,0,1361,402,0,0,0,0,0,0,0,180,1.8,6,6,777.7,77777,9,999999999,0,0.0000,0,0,999.000,0.0,99.0
2010,4,10,22,0,?9?9?9?9E0?9?9?9?9*9?9?9?9?9*9?9*9*9?9*_?9?9*9?9*9,24.6,19.0,71,98090,0,1361,404,0,0,0,0,0,0,0,180,1.8,7,7,777.7,77777,9,999999999,0,0.0000,0,0,999.000,0.0,99.0
2010,4,10,23,0,?9?9?9?9E0?9?9?9?9*9?9?9?9?9*9?9*9*9?9*_?9?9*9?9*9,24.0,19.0,73,98090,0,1361,401,0,0,0,0,0,0,0,180,1.8,7,7,777.7,77777,9,999999999,0,0.0000,0,0,999.000,0.0,99.0
2010,4,10,24,0,?9?9?9?9E0?9?9?9?9*9?9?9?9?9*9?9*9*9?9*_?9?9*9?9*9,23.5,20.5,80,98090,0,1361,400,0,0,0,0,0,0,0,180,1.6,7,7,777.7,77777,9,999999999,0,0.0000,0,0,999.000,0.0,99.0
2010,4,11,1,0,?9?9?9?9E0?9?9?9?9*9?9?9?9?9*9?9*9*9?9*_?9?9*9?9*9,23.2,20.5,85,98090,0,1361,398,0,0,0,0,0,0,0,180,1.6,7,7,777.7,77777,9,999999999,0,0.0000,0,0,999.000,0.0,99.0
2010,4,11,2,0,?9?9?9?9E0?9?9?9?9*9?9?9?9?9*9?9*9*9?9*_?9?9*9?9*9,23.0,20.5,82,98090,0,1361,397,0,0,0,0,0,0,0,180,1.6,7,7,777.7,77777,9,999999999,0,0.0000,0,0,999.000,0.0,99.0
2010,4,11,3,0,?9?9?9?9E0?9?9?9?9*9?9?9?9?9*9?9*9*9?9*_?9?9*9?9*9,22.7,20.5,88,98090,0,1361,396,0,0,0,0,0,0,0,180,1.6,7,7,777.7,77777,9,999999999,0,0.0000,0,0,999.000,0.0,99.0
2010,4,11,4,0,?9?9?9?9E0?9?9?9?9*9?9?9?9?9*9?9*9*9?9*_?9?9*9?9*9,22.4,20.5,85,98090,0,1360,394,0,0,0,0,0,0,0,180,1.6,7,7,777.7,77777,9,999999999,0,0.0000,0,0,999.000,0.0,99.0
2010,4,11,5,0,?9?9?9?9E0?9?9?9?9*9?9?9?9?9*9?9*9*9?9*_?9?9*9?9*9,22.2,20.5,86,98090,0,1360,399,0,0,0,0,0,0,0,180,1.6,8,8,777.7,77777,9,999999999,0,0.0000,0,0,999.000,0.0,99.0
2010,4,11,6,0,?9?9?9?9E0?9?9?9?9*9?9?9?9?9*9?9*9*9?9*_?9?9*9?9*9,22.0,20.5,91,98090,0,1360,398,0,0,0,0,0,0,0,180,1.6,8,8,777.7,77777,9,999999999,0,0.0000,0,0,999.000,0.1,99.0
2010,4,11,7,0,?9?9?9?9E0?9?9?9?9*9?9?9?9?9*9?9*9*9?9*_?9?9*9?9*9,21.8,20.5,92,98090,160,1360,397,0,0,0,0,0,0,0,180,1.6,8,8,777.7,77777,9,999999999,0,0.0000,0,0,999.000,0.2,99.0
2010,4,11,8,0,?9?9?9?9E0?9?9?9?9*9?9?9?9?9*9?9*9*9?9*_?9?9*9?9*9,21.6,20.5,93,98090,469,1360,396,107,0,107,12796,0,11729,99,180,1.6,8,8,777.7,77777,9,999999999,0,0.0000,0,0,999.000,0.0,99.0
2010,4,11,9,0,?9?9?9?9E0?9?9?9?9*9?9?9?9?9*9?9*9*9?9*_?9?9*9?9*9,24.1,20.5,77,98090,743,1360,403,272,83,227,32690,7874,24990,133,180,1.6,7,7,777.7,77777,9,999999999,0,0.0000,0,0,999.000,0.0,99.0
2010,4,11,10,0,?9?9?9?9E0?9?9?9?9*9?9?9?9?9*9?9*9*9?9*_?9?9*9?9*9,25.2,20.5,73,98090,961,1360,409,419,96,351,50269,9150,38592,158,180,2.3,7,7,777.7,77777,9,999999999,0,0.0000,0,0,999.000,0.0,99.0
2010,4,11,11,0,?9?9?9?9E0?9?9?9?9*9?9?9?9?9*9?9*9*9?9*_?9?9*9?9*9,26.0,20.5,70,98090,1110,1360,409,529,119,432,63529,11338,47522,169,180,2.9,6,6,777.7,77777,9,999999999,0,0.0000,0,0,999.000,0.0,99.0
2010,4,11,12,0,?9?9?9?9E0?9?9?9?9*9?9?9?9?9*9?9*9*9?9*_?9?9*9?9*9,26.7,20.5,67,98090,1178,1360,413,595,142,471,71380,13534,51860,173,180,3.6,6,6,777.7,77777,9,999999999,0,0.0000,0,0,999.000,0.0,99.0
2010,4,11,13,0,?9?9?9?9E0?9?9?9?9*9?9?9?9?9*9?9*9*9?9*_?9?9*9?9*9,27.2,20.5,66,98090,1161,1360,416,610,169,466,73225,16053,51261,174,180,3.8,6,6,777.7,77777,9,999999999,0,0.0000,0,0,999.000,0.0,99.0
2010,4,11,14,0,?9?9?9?9E0?9?9?9?9*9?9?9?9?9*9?9*9*9?9*_?9?9*9?9*9,27.5,20.5,65,98090,1060,1360,417,574,204,415,68930,19418,45671,170,180,4.0,6,6,777.7,77777,9,999999999,0,0.0000,0,0,999.000,0.0,99.0
2010,4,11,15,0,?9?9?9?9E0?9?9?9?9*9?9?9?9?9*9?9*9*9?9*_?9?9*9?9*9,27.6,20.5,65,98090,881,1360,418,490,338,271,58813,32069,29854,133,180,4.3,6,6,777.7,77777,9,999999999,0,0.0000,0,0,999.000,0.0,99.0
2010,4,11,16,0,?9?9?9?9E0?9?9?9?9*9?9?9?9?9*9?9*9*9?9*_?9?9*9?9*9,27.4,20.5,65,98090,639,1360,421,364,426,164,43658,40475,18040,111,180,4.2,7,7,777.7,77777,9,999999999,0,0.0000,0,0,999.000,0.0,99.0
2010,4,11,17,0,?9?9?9?9E0?9?9?9?9*9?9?9?9?9*9?9*9*9?9*_?9?9*9?9*9,26.9,20.5,67,98090,348,1360,425,207,520,74,24810,49439,8171,93,180,3.4,8,8,777.7,77777,9,999999999,0,0.0000,0,0,999.000,0.0,99.0
2010,4,11,18,0,?9?9?9?9E0?9?9?9?9*9?9?9?9?9*9?9*9*9?9*_?9?9*9?9*9,26.1,20.5,70,98090,34,1360,421,45,0,45,5362,0,4915,743,180,2.8,8,8,777.7,77777,9,999999999,0,0.0000,0,0,999.000,0.0,99.0
2010,4,11,19,0,?9?9?9?9E0?9?9?9?9*9?9?9?9?9*9?9*9*9?9*_?9?9*9?9*9,25.6,20.5,80,98090,0,1360,418,0,0,0,0,0,0,0,180,2.3,8,8,777.7,77777,9,999999999,4,0.0000,0,0,999.000,4.6,99.0
2010,4,11,20,0,?9?9?9?9E0?9?9?9?9*9?9?9?9?9*9?9*9*9?9*_?9?9*9?9*9,25.1,20.5,78,98090,0,1360,415,0,0,0,0,0,0,0,180,1.8,8,8,777.7,77777,9,999999999,0,0.0000,0,0,999.000,0.1,99.0
2010,4,11,21,0,?9?9?9?9E0?9?9?9?9*9?9?9?9?9*9?9*9*9?9*_?9?9*9?9*9,24.6,20.5,75,98090,0,1360,412,0,0,0,0,0,0,0,180,1.6,8,8,777.7,77777,9,999999999,0,0.0000,0,0,999.000,0.0,99.0
2010,4,11,22,0,?9?9?9?9E0?9?9?9?9*9?9?9?9?9*9?9*9*9?9*_?9?9*9?9*9,24.1,20.5,77,98090,0,1360,410,0,0,0,0,0,0,0,180,1.6,8,8,777.7,77777,9,999999999,0,0.0000,0,0,999.000,0.0,99.0
2010,4,11,23,0,?9?9?9?9E0?9?9?9?9*9?9?9?9?9*9?9*9*9?9*_?9?9*9?9*9,23.6,20.5,79,98090,0,1360,407,0,0,0,0,0,0,0,180,1.6,8,8,777.7,77777,9,999999999,0,0.0000,0,0,999.000,0.0,99.0
2010,4,11,24,0,?9?9?9?9E0?9?9?9?9*9?9?9?9?9*9?9*9*9?9*_?9?9*9?9*9,23.1,20.6,84,98090,0,1360,404,0,0,0,0,0,0,0,180,1.4,8,8,777.7,77777,9,999999999,0,0.0000,0,0,999.000,0.0,99.0
2010,4,12,1,0,?9?9?9?9E0?9?9?9?9*9?9?9?9?9*9?9*9*9?9*_?9?9*9?9*9,22.9,20.5,81,98090,0,1360,403,0,0,0,0,0,0,0,180,1.4,8,8,777.7,77777,9,999999999,0,0.0000,0,0,999.000,0.0,99.0
2010,4,12,2,0,?9?9?9?9E0?9?9?9?9*9?9?9?9?9*9?9*9*9?9*_?9?9*9?9*9,22.6,20.5,94,98090,0,1360,402,0,0,0,0,0,0,0,180,1.4,8,8,777.7,77777,9,999999999,6,0.0000,0,0,999.000,6.3,99.0
2010,4,12,3,0,?9?9?9?9E0?9?9?9?9*9?9?9?9?9*9?9*9*9?9*_?9?9*9?9*9,22.4,20.5,87,98090,0,1360,400,0,0,0,0,0,0,0,180,1.4,8,8,777.7,77777,9,999999999,0,0.0000,0,0,999.000,0.1,99.0
2010,4,12,4,0,?9?9?9?9E0?9?9?9?9*9?9?9?9?9*9?9*9*9?9*_?9?9*9?9*9,22.2,20.5,88,98090,0,1359,399,0,0,0,0,0,0,0,180,1.4,8,8,777.7,77777,9,999999999,0,0.0000,0,0,999.000,0.1,99.0
2010,4,12,5,0,?9?9?9?9E0?9?9?9?9*9?9?9?9?9*9?9*9*9?9*_?9?9*9?9*9,21.9,20.5,89,98090,0,1359,398,0,0,0,0,0,0,0,180,1.4,8,8,777.7,77777,9,999999999,0,0.0000,0,0,999.000,0.3,99.0
2010,4,12,6,0,?9?9?9?9E0?9?9?9?9*9?9?9?9?9*9?9*9*9?9*_?9?9*9?9*9,21.7,20.4,89,98090,0,1359,397,0,0,0,0,0,0,0,180,1.4,8,8,777.7,77777,9,999999999,0,0.0000,0,0,999.000,0.0,99.0
2010,4,12,7,0,?9?9?9?9E0?9?9?9?9*9?9?9?9?9*9?9*9*9?9*_?9?9*9?9*9,21.6,20.4,86,98090,158,1359,396,0,0,0,0,0,0,0,180,1.4,8,8,777.7,77777,9,999999999,0,0.0000,0,0,999.000,0.0,99.0
2010,4,12,8,0,?9?9?9?9E0?9?9?9?9*9?9?9?9?9*9?9*9*9?9*_?9?9*9?9*9,21.4,20.4,87,98090,466,1359,395,91,0,91,10934,0,10023,85,180,1.4,8,8,777.7,77777,9,999999999,0,0.0000,0,0,999.000,0.0,99.0
2010,4,12,9,0,?9?9?9?9E0?9?9?9?9*9?9?9?9?9*9?9*9*9?9*_?9?9*9?9*9,23.7,20.6,79,98090,739,1359,407,202,19,192,24192,1765,21065,112,180,1.4,8,8,777.7,77777,9,999999999,0,0.0000,0,0,999.000,0.0,99.0
2010,4,12,10,0,?9?9?9?9E0?9?9?9?9*9?9?9?9?9*9?9*9*9?9*_?9?9*9?9*9,25.4,20.8,73,98090,958,1359,402,475,203,332,56998,19292,36515,150,180,1.9,5,5,777.7,77777,9,999999999,0,0.0000,0,0,999.000,0.0,99.0
2010,4,12,11,0,?9?9?9?9E0?9?9?9?9*9?9?9?9?9*9?9*9*9?9*_?9?9*9?9*9,26.2,20.8,71,98090,1105,1359,415,455,93,379,54587,8825,41728,148,180,2.4,7,7,777.7,77777,9,999999999,0,0.0000,0,0,999.000,0.0,99.0
2010,4,12,12,0,?9?9?9?9E0?9?9?9?9*9?9?9?9?9*9?9*9*9?9*_?9?9*9?9*9,26.8,20.9,69,98090,1173,1359,419,511,79,443,61327,7499,48723,163,180,3.5,7,7,777.7,77777,9,999999999,0,0.0000,0,0,999.000,0.0,99.0
2010,4,12,13,0,?9?9?9?9E0?9?9?9?9*9?9?9?9?9*9?9*9*9?9*_?9?9*9?9*9,27.3,20.9,68,98090,1155,1359,421,524,94,444,62896,8941,48854,166,180,4.4,7,7,777.7,77777,9,999999999,0,0.0000,0,0,999.000,0.0,99.0
2010,4,12,14,0,?9?9?9?9E0?9?9?9?9*9?9?9?9?9*9?9*9*9?9*_?9?9*9?9*9,27.5,21.0,67,98090,1054,1359,423,493,115,404,59172,10942,44416,166,180,4.9,7,7,777.7,77777,9,999999999,0,0.0000,0,0,999.000,0.0,99.0
2010,4,12,15,0,?9?9?9?9E0?9?9?9?9*9?9?9?9?9*9?9*9*9?9*_?9?9*9?9*9,27.6,21.0,67,98090,876,1359,423,420,121,342,50437,11532,37631,169,180,5.2,7,7,777.7,77777,9,999999999,0,0.0000,0,0,999.000,0.0,99.0
2010,4,12,16,0,?9?9?9?9E0?9?9?9?9*9?9?9?9?9*9?9*9*9?9*_?9?9*9?9*9,27.3,20.9,67,98090,633,1359,428,311,244,198,37366,23179,21762,135,180,5.0,8,8,777.7,77777,9,999999999,0,0.0000,0,0,999.000,0.0,99.0
2010,4,12,17,0,?9?9?9?9E0?9?9?9?9*9?9?9?9?9*9?9*9*9?9*_?9?9*9?9*9,26.8,20.9,73,98090,343,1359,425,176,423,70,21124,40208,7679,89,180,3.9,8,8,777.7,77777,9,999999999,0,0.0000,0,0,999.000,0.0,99.0
2010,4,12,18,0,?9?9?9?9E0?9?9?9?9*9?9?9?9?9*9?9*9*9?9*_?9?9*9?9*9,26.0,20.8,71,98090,30,1359,420,37,0,37,4423,0,4055,746,180,3.2,8,8,777.7,77777,9,999999999,0,0.0000,0,0,999.000,0.0,99.0
2010,4,12,19,0,?9?9?9?9E0?9?9?9?9*9?9?9?9?9*9?9*9*9?9*_?9?9*9?9*9,25.5,20.8,73,98090,0,1359,417,0,0,0,0,0,0,0,180,1.9,8,8,777.7,77777,9,999999999,0,0.0000,0,0,999.000,0.0,99.0
2010,4,12,20,0,?9?9?9?9E0?9?9?9?9*9?9?9?9?9*9?9*9*9?9*_?9?9*9?9*9,25.0,20.7,74,98090,0,1359,415,0,0,0,0,0,0,0,180,1.4,8,8,777.7,77777,9,999999999,0,0.0000,0,0,999.000,0.0,99.0
2010,4,12,21,0,?9?9?9?9E0?9?9?9?9*9?9?9?9?9*9?9*9*9?9*_?9?9*9?9*9,24.5,20.7,76,98090,0,1359,405,0,0,0,0,0,0,0,180,1.4,7,7,777.7,77777,9,999999999,0,0.0000,0,0,999.000,0.0,99.0
2010,4,12,22,0,?9?9?9?9E0?9?9?9?9*9?9?9?9?9*9?9*9*9?9*_?9?9*9?9*9,24.0,20.6,78,98090,0,1359,403,0,0,0,0,0,0,0,180,1.4,7,7,777.7,77777,9,999999999,0,0.0000,0,0,999.000,0.0,99.0
2010,4,12,23,0,?9?9?9?9E0?9?9?9?9*9?9?9?9?9*9?9*9*9?9*_?9?9*9?9*9,23.4,20.6,83,98090,0,1359,400,0,0,0,0,0,0,0,180,1.4,7,7,777.7,77777,9,999999999,0,0.0000,0,0,999.000,0.2,99.0
2010,4,12,24,0,?9?9?9?9E0?9?9?9?9*9?9?9?9?9*9?9*9*9?9*_?9?9*9?9*9,22.9,19.0,83,98090,0,1359,395,0,0,0,0,0,0,0,180,1.5,7,7,777.7,77777,9,999999999,0,0.0000,0,0,999.000,0.0,99.0
2010,4,13,1,0,?9?9?9?9E0?9?9?9?9*9?9?9?9?9*9?9*9*9?9*_?9?9*9?9*9,22.7,19.1,80,98090,0,1359,389,0,0,0,0,0,0,0,180,1.5,6,6,777.7,77777,9,999999999,0,0.0000,0,0,999.000,0.0,99.0
2010,4,13,2,0,?9?9?9?9E0?9?9?9?9*9?9?9?9?9*9?9*9*9?9*_?9?9*9?9*9,22.4,19.3,82,98090,0,1359,388,0,0,0,0,0,0,0,180,1.5,6,6,777.7,77777,9,999999999,0,0.0000,0,0,999.000,0.0,99.0
2010,4,13,3,0,?9?9?9?9E0?9?9?9?9*9?9?9?9?9*9?9*9*9?9*_?9?9*9?9*9,22.2,19.4,84,98090,0,1359,387,0,0,0,0,0,0,0,180,1.5,6,6,777.7,77777,9,999999999,0,0.0000,0,0,999.000,0.0,99.0
2010,4,13,4,0,?9?9?9?9E0?9?9?9?9*9?9?9?9?9*9?9*9*9?9*_?9?9*9?9*9,21.9,19.5,85,98090,0,1358,386,0,0,0,0,0,0,0,180,1.5,6,6,777.7,77777,9,999999999,0,0.0000,0,0,999.000,0.0,99.0
2010,4,13,5,0,?9?9?9?9E0?9?9?9?9*9?9?9?9?9*9?9*9*9?9*_?9?9*9?9*9,21.7,19.6,87,98090,0,1358,385,0,0,0,0,0,0,0,180,1.5,6,6,777.7,77777,9,999999999,0,0.0000,0,0,999.000,0.0,99.0
2010,4,13,6,0,?9?9?9?9E0?9?9?9?9*9?9?9?9?9*9?9*9*9?9*_?9?9*9?9*9,21.5,19.7,89,98090,0,1358,380,0,0,0,0,0,0,0,180,1.5,5,5,777.7,77777,9,999999999,0,0.0000,0,0,999.000,0.0,99.0
2010,4,13,7,0,?9?9?9?9E0?9?9?9?9*9?9?9?9?9*9?9*9*9?9*_?9?9*9?9*9,21.3,19.7,90,98090,156,1358,379,0,0,0,0,0,0,0,180,1.5,5,5,777.7,77777,9,999999999,0,0.0000,0,0,999.000,0.0,99.0
2010,4,13,8,0,?9?9?9?9E0?9?9?9?9*9?9?9?9?9*9?9*9*9?9*_?9?9*9?9*9,21.1,19.8,92,98090,464,1358,379,160,69,137,19225,6549,15041,128,180,1.5,5,5,777.7,77777,9,999999999,0,0.0000,0,0,999.000,0.0,99.0
2010,4,13,9,0,?9?9?9?9E0?9?9?9?9*9?9?9?9?9*9?9*9*9?9*_?9?9*9?9*9,24.0,18.5,71,98090,736,1358,370,412,368,213,49442,34982,23385,125,180,1.5,0,0,777.7,77777,9,999999999,0,0.0000,0,0,999.000,0.0,99.0
2010,4,13,10,0,?9?9?9?9E0?9?9?9?9*9?9?9?9?9*9?9*9*9?9*_?9?9*9?9*9,25.2,18.0,64,98090,954,1358,375,636,626,197,76312,59458,21631,89,180,1.5,0,0,777.7,77777,9,999999999,0,0.0000,0,0,999.000,0.0,99.0
2010,4,13,11,0,?9?9?9?9E0?9?9?9?9*9?9?9?9?9*9?9*9*9?9*_?9?9*9?9*9,26.2,17.5,58,98090,1101,1358,380,806,755,194,96683,71736,21311,76,180,2.5,0,0,777.7,77777,9,999999999,0,0.0000,0,0,999.000,0.0,99.0
2010,4,13,12,0,?9?9?9?9E0?9?9?9?9*9?9?9?9?9*9?9*9*9?9*_?9?9*9?9*9,27.0,17.1,54,98090,1168,1358,384,907,884,147,108848,84015,16136,54,180,3.2,0,0,777.7,77777,9,999999999,0,0.0000,0,0,999.000,0.0,99.0
2010,4,13,13,0,?9?9?9?9E0?9?9?9?9*9?9?9?9?9*9?9*9*9?9*_?9?9*9?9*9,27.6,16.9,51,98090,1150,1358,386,929,896,170,111428,85156,18660,64,180,3.9,0,0,777.7,77777,9,999999999,0,0.0000,0,0,999.000,0.0,99.0
2010,4,13,14,0,?9?9?9?9E0?9?9?9?9*9?9?9?9?9*9?9*9*9?9*_?9?9*9?9*9,27.9,16.7,50,98090,1049,1358,388,871,849,216,104546,80621,23777,89,180,4.7,0,0,777.7,77777,9,999999999,0,0.0000,0,0,999.000,0.0,99.0
2010,4,13,15,0,?9?9?9?9E0?9?9?9?9*9?9?9?9?9*9?9*9*9?9*_?9?9*9?9*9,28.0,16.6,50,98090,871,1358,388,746,818,222,89484,77664,24421,110,180,5.3,0,0,777.7,77777,9,999999999,0,0.0000,0,0,999.000,0.0,99.0
2010,4,13,16,0,?9?9?9?9E0?9?9?9?9*9?9?9?9?9*9?9*9*9?9*_?9?9*9?9*9,27.8,16.8,51,98090,628,1358,387,556,801,186,66709,76083,20476,128,180,4.7,0,0,777.7,77777,9,999999999,0,0.0000,0,0,999.000,0.0,99.0
2010,4,13,17,0,?9?9?9?9E0?9?9?9?9*9?9?9?9?9*9?9*9*9?9*_?9?9*9?9*9,27.2,17.1,53,98090,338,1358,392,314,631,158,37712,59929,17400,204,180,4.3,1,1,777.7,77777,9,999999999,0,0.0000,0,0,999.000,0.0,99.0
2010,4,13,18,0,?9?9?9?9E0?9?9?9?9*9?9?9?9?9*9?9*9*9?9*_?9?9*9?9*9,26.3,17.5,58,98090,26,1358,418,64,0,64,7699,0,7058,1651,180,3.2,8,8,777.7,77777,9,999999999,0,0.0000,0,0,999.000,0.0,99.0
2010,4,13,19,0,?9?9?9?9E0?9?9?9?9*9?9?9?9?9*9?9*9*9?9*_?9?9*9?9*9,25.8,17.7,61,98090,0,1358,415,0,0,0,0,0,0,0,180,2.0,8,8,777.7,77777,9,999999999,0,0.0000,0,0,999.000,0.0,99.0
2010,4,13,20,0,?9?9?9?9E0?9?9?9?9*9?9?9?9?9*9?9*9*9?9*_?9?9*9?9*9,25.3,18.0,74,98090,0,1358,413,0,0,0,0,0,0,0,180,1.6,8,8,777.7,77777,9,999999999,1,0.0000,0,0,999.000,1.9,99.0
2010,4,13,21,0,?9?9?9?9E0?9?9?9?9*9?9?9?9?9*9?9*9*9?9*_?9?9*9?9*9,24.8,18.2,67,98090,0,1358,404,0,0,0,0,0,0,0,180,1.5,7,7,777.7,77777,9,999999999,0,0.0000,0,0,999.000,0.0,99.0
2010,4,13,22,0,?9?9?9?9E0?9?9?9?9*9?9?9?9?9*9?9*9*9?9*_?9?9*9?9*9,24.2,18.5,75,98090,0,1358,401,0,0,0,0,0,0,0,180,1.5,7,7,777.7,77777,9,999999999,0,0.0000,0,0,999.000,0.1,99.0
2010,4,13,23,0,?9?9?9?9E0?9?9?9?9*9?9?9?9?9*9?9*9*9?9*_?9?9*9?9*9,23.7,18.7,78,98090,0,1358,399,0,0,0,0,0,0,0,180,1.5,7,7,777.7,77777,9,999999999,0,0.0000,0,0,999.000,0.0,99.0
2010,4,13,24,0,?9?9?9?9E0?9?9?9?9*9?9?9?9?9*9?9*9*9?9*_?9?9*9?9*9,23.2,19.2,78,98090,0,1358,397,0,0,0,0,0,0,0,180,1.3,7,7,777.7,77777,9,999999999,0,0.0000,0,0,999.000,0.0,99.0
2010,4,14,1,0,?9?9?9?9E0?9?9?9?9*9?9?9?9?9*9?9*9*9?9*_?9?9*9?9*9,23.0,19.3,80,98090,0,1358,391,0,0,0,0,0,0,0,180,1.3,6,6,777.7,77777,9,999999999,0,0.0000,0,0,999.000,0.0,99.0
2010,4,14,2,0,?9?9?9?9E0?9?9?9?9*9?9?9?9?9*9?9*9*9?9*_?9?9*9?9*9,22.7,19.5,81,98090,0,1358,390,0,0,0,0,0,0,0,180,1.3,6,6,777.7,77777,9,999999999,0,0.0000,0,0,999.000,0.0,99.0
2010,4,14,3,0,?9?9?9?9E0?9?9?9?9*9?9?9?9?9*9?9*9*9?9*_?9?9*9?9*9,22.5,19.6,83,98090,0,1358,389,0,0,0,0,0,0,0,180,1.3,6,6,777.7,77777,9,999999999,0,0.0000,0,0,999.000,0.0,99.0
2010,4,14,4,0,?9?9?9?9E0?9?9?9?9*9?9?9?9?9*9?9*9*9?9*_?9?9*9?9*9,22.2,19.7,85,98090,0,1358,387,0,0,0,0,0,0,0,180,1.3,6,6,777.7,77777,9,999999999,0,0.0000,0,0,999.000,0.0,99.0
2010,4,14,5,0,?9?9?9?9E0?9?9?9?9*9?9?9?9?9*9?9*9*9?9*_?9?9*9?9*9,21.9,19.8,87,98090,0,1358,386,0,0,0,0,0,0,0,180,1.3,6,6,777.7,77777,9,999999999,0,0.0000,0,0,999.000,0.0,99.0
2010,4,14,6,0,?9?9?9?9E0?9?9?9?9*9?9?9?9?9*9?9*9*9?9*_?9?9*9?9*9,21.7,19.9,89,98090,0,1358,382,0,0,0,0,0,0,0,180,1.3,5,5,777.7,77777,9,999999999,0,0.0000,0,0,999.000,0.0,99.0
2010,4,14,7,0,?9?9?9?9E0?9?9?9?9*9?9?9?9?9*9?9*9*9?9*_?9?9*9?9*9,21.6,20.0,90,98090,154,1358,381,0,0,0,0,0,0,0,180,1.3,5,5,777.7,77777,9,999999999,0,0.0000,0,0,999.000,0.0,99.0
2010,4,14,8,0,?9?9?9?9E0?9?9?9?9*9?9?9?9?9*9?9*9*9?9*_?9?9*9?9*9,21.4,20.1,92,98090,461,1358,380,163,77,137,19532,7307,15039,128,180,1.3,5,5,777.7,77777,9,999999999,0,0.0000,0,0,999.000,0.0,99.0
2010,4,14,9,0,?9?9?9?9E0?9?9?9?9*9?9?9?9?9*9?9*9*9?9*_?9?9*9?9*9,24.2,18.7,71,98090,733,1358,371,419,398,205,50293,37763,22514,121,180,1.3,0,0,777.7,77777,9,999999999,0,0.0000,0,0,999.000,0.0,99.0
2010,4,14,10,0,?9?9?9?9E0?9?9?9?9*9?9?9?9?9*9?9*9*9?9*_?9?9*9?9*9,25.4,18.1,64,98090,950,1358,376,646,650,192,77530,61728,21080,87,180,2.4,0,0,777.7,77777,9,999999999,0,0.0000,0,0,999.000,0.0,99.0
2010,4,14,11,0,?9?9?9?9E0?9?9?9?9*9?9?9?9?9*9?9*9*9?9*_?9?9*9?9*9,26.3,17.6,58,98090,1097,1358,381,816,802,168,97895,76190,18491,66,180,3.4,0,0,777.7,77777,9,999999999,0,0.0000,0,0,999.000,0.0,99.0
2010,4,14,12,0,?9?9?9?9E0?9?9?9?9*9?9?9?9?9*9?9*9*9?9*_?9?9*9?9*9,27.1,17.2,54,98090,1163,1358,384,915,915,132,109849,86890,14506,49,180,4.1,0,0,777.7,77777,9,999999999,0,0.0000,0,0,999.000,0.0,99.0
2010,4,14,13,0,?9?9?9?9E0?9?9?9?9*9?9?9?9?9*9?9*9*9?9*_?9?9*9?9*9,27.7,16.9,51,98090,1145,1358,387,938,914,167,112619,86859,18422,63,180,4.7,0,0,777.7,77777,9,999999999,0,0.0000,0,0,999.000,0.0,99.0
2010,4,14,14,0,?9?9?9?9E0?9?9?9?9*9?9?9?9?9*9?9*9*9?9*_?9?9*9?9*9,28.0,16.7,50,98090,1043,1358,388,881,854,225,105698,81124,24718,93,180,5.4,0,0,777.7,77777,9,999999999,0,0.0000,0,0,999.000,0.0,99.0
2010,4,14,15,0,?9?9?9?9E0?9?9?9?9*9?9?9?9?9*9?9*9*9?9*_?9?9*9?9*9,28.1,16.7,49,98090,865,1358,388,749,815,229,89849,77470,25226,115,180,5.1,0,0,777.7,77777,9,999999999,0,0.0000,0,0,999.000,0.0,99.0
2010,4,14,16,0,?9?9?9?9E0?9?9?9?9*9?9?9?9?9*9?9*9*9?9*_?9?9*9?9*9,27.8,16.8,51,98090,623,1358,387,553,798,188,66388,75785,20659,131,180,4.1,0,0,777.7,77777,9,999999999,0,0.0000,0,0,999.000,0.0,99.0
2010,4,14,17,0,?9?9?9?9E0?9?9?9?9*9?9?9?9?9*9?9*9*9?9*_?9?9*9?9*9,27.2,17.1,54,98090,333,1358,392,310,625,158,37247,59374,17374,206,180,3.5,1,1,777.7,77777,9,999999999,0,0.0000,0,0,999.000,0.0,99.0
2010,4,14,18,0,?9?9?9?9E0?9?9?9?9*9?9?9?9?9*9?9*9*9?9*_?9?9*9?9*9,26.4,17.6,58,98090,22,1358,418,60,0,60,7218,0,6617,2118,180,2.7,8,8,777.7,77777,9,999999999,0,0.0000,0,0,999.000,0.0,99.0
2010,4,14,19,0,?9?9?9?9E0?9?9?9?9*9?9?9?9?9*9?9*9*9?9*_?9?9*9?9*9,25.8,17.9,61,98090,0,1358,416,0,0,0,0,0,0,0,180,2.1,8,8,777.7,77777,9,999999999,0,0.0000,0,0,999.000,0.0,99.0
2010,4,14,20,0,?9?9?9?9E0?9?9?9?9*9?9?9?9?9*9?9*9*9?9*_?9?9*9?9*9,25.2,18.2,65,98090,0,1358,413,0,0,0,0,0,0,0,180,1.3,8,8,777.7,77777,9,999999999,0,0.0000,0,0,999.000,0.0,99.0
2010,4,14,21,0,?9?9?9?9E0?9?9?9?9*9?9?9?9?9*9?9*9*9?9*_?9?9*9?9*9,24.6,18.5,68,98090,0,1358,410,0,0,0,0,0,0,0,180,1.3,8,8,777.7,77777,9,999999999,0,0.0000,0,0,999.000,0.0,99.0
2010,4,14,22,0,?9?9?9?9E0?9?9?9?9*9?9?9?9?9*9?9*9*9?9*_?9?9*9?9*9,24.1,18.8,72,98090,0,1358,407,0,0,0,0,0,0,0,180,1.3,8,8,777.7,77777,9,999999999,0,0.0000,0,0,999.000,0.0,99.0
2010,4,14,23,0,?9?9?9?9E0?9?9?9?9*9?9?9?9?9*9?9*9*9?9*_?9?9*9?9*9,23.5,19.1,76,98090,0,1358,405,0,0,0,0,0,0,0,180,1.3,8,8,777.7,77777,9,999999999,0,0.0000,0,0,999.000,0.0,99.0
2010,4,14,24,0,?9?9?9?9E0?9?9?9?9*9?9?9?9?9*9?9*9*9?9*_?9?9*9?9*9,23.0,19.4,85,98090,0,1358,402,0,0,0,0,0,0,0,180,1.4,8,8,777.7,77777,9,999999999,0,0.0000,0,0,999.000,0.0,99.0
2010,4,15,1,0,?9?9?9?9E0?9?9?9?9*9?9?9?9?9*9?9*9*9?9*_?9?9*9?9*9,22.7,19.5,82,98090,0,1358,400,0,0,0,0,0,0,0,180,1.4,8,8,777.7,77777,9,999999999,0,0.0000,0,0,999.000,0.0,99.0
2010,4,15,2,0,?9?9?9?9E0?9?9?9?9*9?9?9?9?9*9?9*9*9?9*_?9?9*9?9*9,22.4,19.5,84,98090,0,1358,399,0,0,0,0,0,0,0,180,1.4,8,8,777.7,77777,9,999999999,0,0.0000,0,0,999.000,0.0,99.0
2010,4,15,3,0,?9?9?9?9E0?9?9?9?9*9?9?9?9?9*9?9*9*9?9*_?9?9*9?9*9,22.1,19.6,85,98090,0,1358,398,0,0,0,0,0,0,0,180,1.4,8,8,777.7,77777,9,999999999,0,0.0000,0,0,999.000,0.0,99.0
2010,4,15,4,0,?9?9?9?9E0?9?9?9?9*9?9?9?9?9*9?9*9*9?9*_?9?9*9?9*9,21.8,19.7,87,98090,0,1357,396,0,0,0,0,0,0,0,180,1.4,8,8,777.7,77777,9,999999999,0,0.0000,0,0,999.000,0.0,99.0
2010,4,15,5,0,?9?9?9?9E0?9?9?9?9*9?9?9?9?9*9?9*9*9?9*_?9?9*9?9*9,21.5,19.8,89,98090,0,1357,395,0,0,0,0,0,0,0,180,1.4,8,8,777.7,77777,9,999999999,0,0.0000,0,0,999.000,0.0,99.0
2010,4,15,6,0,?9?9?9?9E0?9?9?9?9*9?9?9?9?9*9?9*9*9?9*_?9?9*9?9*9,21.3,19.8,91,98090,0,1357,394,0,0,0,0,0,0,0,180,1.4,8,8,777.7,77777,9,999999999,0,0.0000,0,0,999.000,0.0,99.0
2010,4,15,7,0,?9?9?9?9E0?9?9?9?9*9?9?9?9?9*9?9*9*9?9*_?9?9*9?9*9,21.1,19.9,92,98090,151,1357,393,0,0,0,0,0,0,0,180,1.4,8,8,777.7,77777,9,999999999,0,0.0000,0,0,999.000,0.0,99.0
2010,4,15,8,0,?9?9?9?9E0?9?9?9?9*9?9?9?9?9*9?9*9*9?9*_?9?9*9?9*9,20.9,19.9,94,98090,458,1357,392,100,0,100,11977,0,10979,94,180,1.4,8,8,777.7,77777,9,999999999,0,0.0000,0,0,999.000,0.0,99.0
2010,4,15,9,0,?9?9?9?9E0?9?9?9?9*9?9?9?9?9*9?9*9*9?9*_?9?9*9?9*9,22.4,19.5,83,98090,730,1357,399,94,0,94,11333,0,10388,56,180,1.4,8,8,777.7,77777,9,999999999,0,0.0000,0,0,999.000,0.0,99.0
2010,4,15,10,0,?9?9?9?9E0?9?9?9?9*9?9?9?9?9*9?9*9*9?9*_?9?9*9?9*9,24.0,19.1,74,98090,946,1357,401,401,109,325,48086,10369,35712,148,180,1.4,7,7,777.7,77777,9,999999999,0,0.0000,0,0,999.000,0.0,99.0
2010,4,15,11,0,?9?9?9?9E0?9?9?9?9*9?9?9?9?9*9?9*9*9?9*_?9?9*9?9*9,25.1,18.8,82,98090,1092,1357,407,507,108,420,60832,10266,46196,166,180,2.0,7,7,777.7,77777,9,999999999,10,0.0000,0,0,999.000,10.4,99.0
2010,4,15,12,0,?9?9?9?9E0?9?9?9?9*9?9?9?9?9*9?9*9*9?9*_?9?9*9?9*9,26.0,18.5,68,98090,1158,1357,406,569,129,459,68332,12287,50494,171,180,3.4,6,6,777.7,77777,9,999999999,0,0.0000,0,0,999.000,0.2,99.0
2010,4,15,13,0,?9?9?9?9E0?9?9?9?9*9?9?9?9?9*9?9*9*9?9*_?9?9*9?9*9,26.6,18.4,65,98090,1140,1357,410,583,154,454,70016,14617,49966,172,180,4.3,6,6,777.7,77777,9,999999999,0,0.0000,0,0,999.000,0.0,99.0
2010,4,15,14,0,?9?9?9?9E0?9?9?9?9*9?9?9?9?9*9?9*9*9?9*_?9?9*9?9*9,27.0,18.2,63,98090,1038,1357,416,548,153,431,65764,14582,47370,179,180,4.6,7,7,777.7,77777,9,999999999,0,0.0000,0,0,999.000,0.0,99.0
2010,4,15,15,0,?9?9?9?9E0?9?9?9?9*9?9?9?9?9*9?9*9*9?9*_?9?9*9?9*9,27.1,18.2,58,98090,860,1357,417,466,311,269,55888,29551,29559,135,180,4.1,7,7,777.7,77777,9,999999999,0,0.0000,0,0,999.000,0.0,99.0
2010,4,15,16,0,?9?9?9?9E0?9?9?9?9*9?9?9?9?9*9?9*9*9?9*_?9?9*9?9*9,27.0,18.3,58,98090,617,1357,416,343,397,162,41158,37747,17864,114,180,4.5,7,7,777.7,77777,9,999999999,0,0.0000,0,0,999.000,0.0,99.0
2010,4,15,17,0,?9?9?9?9E0?9?9?9?9*9?9?9?9?9*9?9*9*9?9*_?9?9*9?9*9,26.4,18.4,66,98090,328,1357,420,191,497,71,22902,47170,7862,95,180,4.2,8,8,777.7,77777,9,999999999,0,0.0000,0,0,999.000,0.2,99.0
2010,4,15,18,0,?9?9?9?9E0?9?9?9?9*9?9?9?9?9*9?9*9*9?9*_?9?9*9?9*9,25.6,18.6,65,98090,18,1357,416,36,0,36,4337,0,3975,1999,180,3.7,8,8,777.7,77777,9,999999999,0,0.0000,0,0,999.000,0.0,99.0
2010,4,15,19,0,?9?9?9?9E0?9?9?9?9*9?9?9?9?9*9?9*9*9?9*_?9?9*9?9*9,25.2,18.8,72,98090,0,1357,414,0,0,0,0,0,0,0,180,2.8,8,8,777.7,77777,9,999999999,0,0.0000,0,0,999.000,0.7,99.0
2010,4,15,20,0,?9?9?9?9E0?9?9?9?9*9?9?9?9?9*9?9*9*9?9*_?9?9*9?9*9,24.9,18.9,74,98090,0,1357,412,0,0,0,0,0,0,0,180,2.2,8,8,777.7,77777,9,999999999,0,0.0000,0,0,999.000,0.0,99.0
2010,4,15,21,0,?9?9?9?9E0?9?9?9?9*9?9?9?9?9*9?9*9*9?9*_?9?9*9?9*9,24.5,19.0,76,98090,0,1357,410,0,0,0,0,0,0,0,180,1.6,8,8,777.7,77777,9,999999999,0,0.0000,0,0,999.000,0.1,99.0
2010,4,15,22,0,?9?9?9?9E0?9?9?9?9*9?9?9?9?9*9?9*9*9?9*_?9?9*9?9*9,24.1,19.1,78,98090,0,1357,408,0,0,0,0,0,0,0,180,1.4,8,8,777.7,77777,9,999999999,0,0.0000,0,0,999.000,0.3,99.0
2010,4,15,23,0,?9?9?9?9E0?9?9?9?9*9?9?9?9?9*9?9*9*9?9*_?9?9*9?9*9,23.8,19.2,80,98090,0,1357,406,0,0,0,0,0,0,0,180,1.4,8,8,777.7,77777,9,999999999,0,0.0000,0,0,999.000,0.1,99.0
2010,4,15,24,0,?9?9?9?9E0?9?9?9?9*9?9?9?9?9*9?9*9*9?9*_?9?9*9?9*9,23.4,20.5,83,98090,0,1357,406,0,0,0,0,0,0,0,180,1.1,8,8,777.7,77777,9,999999999,0,0.0000,0,0,999.000,0.0,99.0
2010,4,16,1,0,?9?9?9?9E0?9?9?9?9*9?9?9?9?9*9?9*9*9?9*_?9?9*9?9*9,23.2,20.6,85,98090,0,1357,405,0,0,0,0,0,0,0,180,1.1,8,8,777.7,77777,9,999999999,0,0.0000,0,0,999.000,0.0,99.0
2010,4,16,2,0,?9?9?9?9E0?9?9?9?9*9?9?9?9?9*9?9*9*9?9*_?9?9*9?9*9,23.0,20.6,86,98090,0,1357,404,0,0,0,0,0,0,0,180,1.1,8,8,777.7,77777,9,999999999,0,0.0000,0,0,999.000,0.0,99.0
2010,4,16,3,0,?9?9?9?9E0?9?9?9?9*9?9?9?9?9*9?9*9*9?9*_?9?9*9?9*9,22.9,20.6,87,98090,0,1357,403,0,0,0,0,0,0,0,180,1.1,8,8,777.7,77777,9,999999999,0,0.0000,0,0,999.000,0.0,99.0
2010,4,16,4,0,?9?9?9?9E0?9?9?9?9*9?9?9?9?9*9?9*9*9?9*_?9?9*9?9*9,22.7,20.7,88,98090,0,1356,402,0,0,0,0,0,0,0,180,1.1,8,8,777.7,77777,9,999999999,0,0.0000,0,0,999.000,0.0,99.0
2010,4,16,5,0,?9?9?9?9E0?9?9?9?9*9?9?9?9?9*9?9*9*9?9*_?9?9*9?9*9,22.5,20.7,89,98090,0,1356,401,0,0,0,0,0,0,0,180,1.1,8,8,777.7,77777,9,999999999,0,0.0000,0,0,999.000,0.0,99.0
2010,4,16,6,0,?9?9?9?9E0?9?9?9?9*9?9?9?9?9*9?9*9*9?9*_?9?9*9?9*9,22.4,20.7,90,98090,0,1356,400,0,0,0,0,0,0,0,180,1.1,8,8,777.7,77777,9,999999999,0,0.0000,0,0,999.000,0.0,99.0
2010,4,16,7,0,?9?9?9?9E0?9?9?9?9*9?9?9?9?9*9?9*9*9?9*_?9?9*9?9*9,22.2,20.7,91,98090,149,1356,400,0,0,0,0,0,0,0,180,1.1,8,8,777.7,77777,9,999999999,0,0.0000,0,0,999.000,0.0,99.0
2010,4,16,8,0,?9?9?9?9E0?9?9?9?9*9?9?9?9?9*9?9*9*9?9*_?9?9*9?9*9,22.1,20.8,92,98090,455,1356,399,84,0,84,10039,0,9203,79,180,1.1,8,8,777.7,77777,9,999999999,0,0.0000,0,0,999.000,0.0,99.0
2010,4,16,9,0,?9?9?9?9E0?9?9?9?9*9?9?9?9?9*9?9*9*9?9*_?9?9*9?9*9,24.6,20.4,77,98090,726,1356,412,219,32,201,26225,3077,22133,120,180,1.5,8,8,777.7,77777,9,999999999,0,0.0000,0,0,999.000,0.0,99.0
2010,4,16,10,0,?9?9?9?9E0?9?9?9?9*9?9?9?9?9*9?9*9*9?9*_?9?9*9?9*9,25.6,20.2,72,98090,942,1356,417,338,45,306,40523,4305,33684,140,180,2.1,8,8,777.7,77777,9,999999999,0,0.0000,0,0,999.000,0.0,99.0
2010,4,16,11,0,?9?9?9?9E0?9?9?9?9*9?9?9?9?9*9?9*9*9?9*_?9?9*9?9*9,26.4,20.0,67,98090,1088,1356,422,427,55,383,51275,5248,42129,152,180,2.7,8,8,777.7,77777,9,999999999,0,0.0000,0,0,999.000,0.0,99.0
2010,4,16,12,0,?9?9?9?9E0?9?9?9?9*9?9?9?9?9*9?9*9*9?9*_?9?9*9?9*9,27.1,19.9,64,98090,1153,1356,426,480,66,424,57594,6298,46593,159,180,3.7,8,8,777.7,77777,9,999999999,0,0.0000,0,0,999.000,0.0,99.0
2010,4,16,13,0,?9?9?9?9E0?9?9?9?9*9?9?9?9?9*9?9*9*9?9*_?9?9*9?9*9,27.6,19.8,62,98090,1135,1356,428,492,79,425,58998,7523,46794,162,180,4.2,8,8,777.7,77777,9,999999999,0,0.0000,0,0,999.000,0.0,99.0
2010,4,16,14,0,?9?9?9?9E0?9?9?9?9*9?9?9?9?9*9?9*9*9?9*_?9?9*9?9*9,27.9,19.8,61,98090,1033,1356,430,462,80,401,55384,7587,44081,168,180,5.1,8,8,777.7,77777,9,999999999,0,0.0000,0,0,999.000,0.0,99.0
2010,4,16,15,0,?9?9?9?9E0?9?9?9?9*9?9?9?9?9*9?9*9*9?9*_?9?9*9?9*9,28.0,19.8,61,98090,854,1356,430,392,103,327,47022,9816,35946,165,180,5.1,8,8,777.7,77777,9,999999999,0,0.0000,0,0,999.000,0.0,99.0
2010,4,16,16,0,?9?9?9?9E0?9?9?9?9*9?9?9?9?9*9?9*9*9?9*_?9?9*9?9*9,27.7,19.8,67,98090,612,1356,429,288,211,193,34562,20041,21219,136,180,5.5,8,8,777.7,77777,9,999999999,0,0.0000,0,0,999.000,0.0,99.0
2010,4,16,17,0,?9?9?9?9E0?9?9?9?9*9?9?9?9?9*9?9*9*9?9*_?9?9*9?9*9,27.2,19.9,64,98090,323,1356,426,159,381,69,19133,36191,7608,93,180,4.5,8,8,777.7,77777,9,999999999,0,0.0000,0,0,999.000,0.0,99.0
2010,4,16,18,0,?9?9?9?9E0?9?9?9?9*9?9?9?9?9*9?9*9*9?9*_?9?9*9?9*9,26.4,20.0,72,98090,14,1356,422,29,0,29,3499,0,3208,3693,180,3.2,8,8,777.7,77777,9,999999999,0,0.0000,0,0,999.000,0.0,99.0
2010,4,16,19,0,?9?9?9?9E0?9?9?9?9*9?9?9?9?9*9?9*9*9?9*_?9?9*9?9*9,25.9,20.1,75,98090,0,1356,419,0,0,0,0,0,0,0,180,2.8,8,8,777.7,77777,9,999999999,0,0.0000,0,0,999.000,0.9,99.0
2010,4,16,20,0,?9?9?9?9E0?9?9?9?9*9?9?9?9?9*9?9*9*9?9*_?9?9*9?9*9,25.3,20.2,73,98090,0,1356,416,0,0,0,0,0,0,0,180,2.2,8,8,777.7,77777,9,999999999,0,0.0000,0,0,999.000,0.0,99.0
2010,4,16,21,0,?9?9?9?9E0?9?9?9?9*9?9?9?9?9*9?9*9*9?9*_?9?9*9?9*9,24.8,20.3,81,98090,0,1356,413,0,0,0,0,0,0,0,180,1.1,8,8,777.7,77777,9,999999999,0,0.0000,0,0,999.000,0.0,99.0
2010,4,16,22,0,?9?9?9?9E0?9?9?9?9*9?9?9?9?9*9?9*9*9?9*_?9?9*9?9*9,24.2,20.4,79,98090,0,1356,404,0,0,0,0,0,0,0,180,1.1,7,7,777.7,77777,9,999999999,0,0.0000,0,0,999.000,0.0,99.0
2010,4,16,23,0,?9?9?9?9E0?9?9?9?9*9?9?9?9?9*9?9*9*9?9*_?9?9*9?9*9,23.6,20.5,82,98090,0,1356,401,0,0,0,0,0,0,0,180,1.1,7,7,777.7,77777,9,999999999,0,0.0000,0,0,999.000,0.0,99.0
2010,4,16,24,0,?9?9?9?9E0?9?9?9?9*9?9?9?9?9*9?9*9*9?9*_?9?9*9?9*9,23.1,19.7,81,98090,0,1356,397,0,0,0,0,0,0,0,180,0.8,7,7,777.7,77777,9,999999999,0,0.0000,0,0,999.000,0.0,99.0
2010,4,17,1,0,?9?9?9?9E0?9?9?9?9*9?9?9?9?9*9?9*9*9?9*_?9?9*9?9*9,22.8,19.8,88,98090,0,1356,395,0,0,0,0,0,0,0,180,0.8,7,7,777.7,77777,9,999999999,0,0.0000,0,0,999.000,0.0,99.0
2010,4,17,2,0,?9?9?9?9E0?9?9?9?9*9?9?9?9?9*9?9*9*9?9*_?9?9*9?9*9,22.5,19.8,84,98090,0,1356,394,0,0,0,0,0,0,0,180,0.8,7,7,777.7,77777,9,999999999,0,0.0000,0,0,999.000,0.0,99.0
2010,4,17,3,0,?9?9?9?9E0?9?9?9?9*9?9?9?9?9*9?9*9*9?9*_?9?9*9?9*9,22.2,19.9,86,98090,0,1356,392,0,0,0,0,0,0,0,180,0.8,7,7,777.7,77777,9,999999999,0,0.0000,0,0,999.000,0.0,99.0
2010,4,17,4,0,?9?9?9?9E0?9?9?9?9*9?9?9?9?9*9?9*9*9?9*_?9?9*9?9*9,22.0,20.0,88,98090,0,1355,391,0,0,0,0,0,0,0,180,0.8,7,7,777.7,77777,9,999999999,0,0.0000,0,0,999.000,0.0,99.0
2010,4,17,5,0,?9?9?9?9E0?9?9?9?9*9?9?9?9?9*9?9*9*9?9*_?9?9*9?9*9,21.7,20.0,90,98090,0,1355,385,0,0,0,0,0,0,0,180,0.8,6,6,777.7,77777,9,999999999,0,0.0000,0,0,999.000,0.0,99.0
2010,4,17,6,0,?9?9?9?9E0?9?9?9?9*9?9?9?9?9*9?9*9*9?9*_?9?9*9?9*9,21.5,20.0,91,98090,0,1355,384,0,0,0,0,0,0,0,180,0.8,6,6,777.7,77777,9,999999999,0,0.0000,0,0,999.000,0.0,99.0
2010,4,17,7,0,?9?9?9?9E0?9?9?9?9*9?9?9?9?9*9?9*9*9?9*_?9?9*9?9*9,21.3,20.1,92,98090,147,1355,383,0,0,0,0,0,0,0,180,0.8,6,6,777.7,77777,9,999999999,0,0.0000,0,0,999.000,0.0,99.0
2010,4,17,8,0,?9?9?9?9E0?9?9?9?9*9?9?9?9?9*9?9*9*9?9*_?9?9*9?9*9,21.1,20.1,94,98090,453,1355,382,147,95,115,17656,9067,12685,110,180,0.8,6,6,777.7,77777,9,999999999,0,0.0000,0,0,999.000,0.0,99.0
2010,4,17,9,0,?9?9?9?9E0?9?9?9?9*9?9?9?9?9*9?9*9*9?9*_?9?9*9?9*9,24.1,19.5,75,98090,723,1355,379,391,329,216,46895,31208,23727,129,180,1.3,1,1,777.7,77777,9,999999999,0,0.0000,0,0,999.000,0.0,99.0
2010,4,17,10,0,?9?9?9?9E0?9?9?9?9*9?9?9?9?9*9?9*9*9?9*_?9?9*9?9*9,25.3,19.3,69,98090,938,1355,378,606,574,209,72749,54518,23013,96,180,2.2,0,0,777.7,77777,9,999999999,0,0.0000,0,0,999.000,0.0,99.0
2010,4,17,11,0,?9?9?9?9E0?9?9?9?9*9?9?9?9?9*9?9*9*9?9*_?9?9*9?9*9,26.4,19.1,64,98090,1083,1355,383,767,674,229,92070,64007,25179,91,180,2.8,0,0,777.7,77777,9,999999999,0,0.0000,0,0,999.000,0.0,99.0
2010,4,17,12,0,?9?9?9?9E0?9?9?9?9*9?9?9?9?9*9?9*9*9?9*_?9?9*9?9*9,27.2,18.9,60,98090,1148,1355,387,868,820,173,104130,77853,19081,65,180,3.4,0,0,777.7,77777,9,999999999,0,0.0000,0,0,999.000,0.0,99.0
2010,4,17,13,0,?9?9?9?9E0?9?9?9?9*9?9?9?9?9*9?9*9*9?9*_?9?9*9?9*9,27.8,18.8,57,98090,1129,1355,390,886,978,72,106375,92920,7875,27,180,4.4,0,0,777.7,77777,9,999999999,0,0.0000,0,0,999.000,0.0,99.0
2010,4,17,14,0,?9?9?9?9E0?9?9?9?9*9?9?9?9?9*9?9*9*9?9*_?9?9*9?9*9,28.2,18.7,56,98090,1027,1355,392,831,812,216,99742,77135,23755,91,180,4.9,0,0,777.7,77777,9,999999999,0,0.0000,0,0,999.000,0.0,99.0
2010,4,17,15,0,?9?9?9?9E0?9?9?9?9*9?9?9?9?9*9?9*9*9?9*_?9?9*9?9*9,28.3,18.7,56,98090,849,1355,392,701,810,193,84073,76974,21262,98,180,5.1,0,0,777.7,77777,9,999999999,0,0.0000,0,0,999.000,0.0,99.0
2010,4,17,16,0,?9?9?9?9E0?9?9?9?9*9?9?9?9?9*9?9*9*9?9*_?9?9*9?9*9,28.0,18.7,57,98090,607,1355,391,513,800,154,61502,76040,16989,110,180,4.8,0,0,777.7,77777,9,999999999,0,0.0000,0,0,999.000,0.0,99.0
2010,4,17,17,0,?9?9?9?9E0?9?9?9?9*9?9?9?9?9*9?9*9*9?9*_?9?9*9?9*9,27.3,18.9,59,98090,318,1355,407,279,643,129,33510,61070,14202,176,180,4.7,4,4,777.7,77777,9,999999999,0,0.0000,0,0,999.000,0.0,99.0
2010,4,17,18,0,?9?9?9?9E0?9?9?9?9*9?9?9?9?9*9?9*9*9?9*_?9?9*9?9*9,26.4,19.1,69,98090,11,1355,420,48,0,0,5786,0,0,0,180,4.0,8,8,777.7,77777,9,999999999,0,0.0000,0,0,999.000,0.0,99.0
2010,4,17,19,0,?9?9?9?9E0?9?9?9?9*9?9?9?9?9*9?9*9*9?9*_?9?9*9?9*9,25.9,19.2,71,98090,0,1355,418,0,0,0,0,0,0,0,180,3.3,8,8,777.7,77777,9,999999999,0,0.0000,0,0,999.000,0.1,99.0
2010,4,17,20,0,?9?9?9?9E0?9?9?9?9*9?9?9?9?9*9?9*9*9?9*_?9?9*9?9*9,25.4,19.3,78,98090,0,1355,415,0,0,0,0,0,0,0,180,2.8,8,8,777.7,77777,9,999999999,4,0.0000,0,0,999.000,4.6,99.0
2010,4,17,21,0,?9?9?9?9E0?9?9?9?9*9?9?9?9?9*9?9*9*9?9*_?9?9*9?9*9,24.9,19.4,76,98090,0,1355,413,0,0,0,0,0,0,0,180,2.2,8,8,777.7,77777,9,999999999,0,0.0000,0,0,999.000,0.2,99.0
2010,4,17,22,0,?9?9?9?9E0?9?9?9?9*9?9?9?9?9*9?9*9*9?9*_?9?9*9?9*9,24.5,19.5,78,98090,0,1355,410,0,0,0,0,0,0,0,180,1.9,8,8,777.7,77777,9,999999999,0,0.0000,0,0,999.000,0.0,99.0
2010,4,17,23,0,?9?9?9?9E0?9?9?9?9*9?9?9?9?9*9?9*9*9?9*_?9?9*9?9*9,24.0,19.6,81,98090,0,1355,408,0,0,0,0,0,0,0,180,1.2,8,8,777.7,77777,9,999999999,0,0.0000,0,0,999.000,0.1,99.0
2010,4,17,24,0,?9?9?9?9E0?9?9?9?9*9?9?9?9?9*9?9*9*9?9*_?9?9*9?9*9,23.5,20.7,84,98090,0,1355,406,0,0,0,0,0,0,0,180,2.5,8,8,777.7,77777,9,999999999,0,0.0000,0,0,999.000,0.3,99.0
2010,4,18,1,0,?9?9?9?9E0?9?9?9?9*9?9?9?9?9*9?9*9*9?9*_?9?9*9?9*9,23.2,20.7,86,98090,0,1355,405,0,0,0,0,0,0,0,180,2.2,8,8,777.7,77777,9,999999999,0,0.0000,0,0,999.000,0.1,99.0
2010,4,18,2,0,?9?9?9?9E0?9?9?9?9*9?9?9?9?9*9?9*9*9?9*_?9?9*9?9*9,23.0,20.7,87,98090,0,1355,404,0,0,0,0,0,0,0,180,2.1,8,8,777.7,77777,9,999999999,0,0.0000,0,0,999.000,0.6,99.0
2010,4,18,3,0,?9?9?9?9E0?9?9?9?9*9?9?9?9?9*9?9*9*9?9*_?9?9*9?9*9,22.8,20.7,88,98090,0,1355,403,0,0,0,0,0,0,0,180,1.6,8,8,777.7,77777,9,999999999,0,0.0000,0,0,999.000,0.4,99.0
2010,4,18,4,0,?9?9?9?9E0?9?9?9?9*9?9?9?9?9*9?9*9*9?9*_?9?9*9?9*9,22.5,20.7,94,98090,0,1355,401,0,0,0,0,0,0,0,180,1.6,8,8,777.7,77777,9,999999999,1,0.0000,0,0,999.000,1.1,99.0
2010,4,18,5,0,?9?9?9?9E0?9?9?9?9*9?9?9?9?9*9?9*9*9?9*_?9?9*9?9*9,22.3,20.8,90,98090,0,1355,400,0,0,0,0,0,0,0,180,1.8,8,8,777.7,77777,9,999999999,0,0.0000,0,0,999.000,0.1,99.0
2010,4,18,6,0,?9?9?9?9E0?9?9?9?9*9?9?9?9?9*9?9*9*9?9*_?9?9*9?9*9,22.1,20.8,87,98090,0,1355,399,0,0,0,0,0,0,0,180,1.6,8,8,777.7,77777,9,999999999,0,0.0000,0,0,999.000,0.0,99.0
2010,4,18,7,0,?9?9?9?9E0?9?9?9?9*9?9?9?9?9*9?9*9*9?9*_?9?9*9?9*9,21.9,20.8,88,98090,145,1355,398,0,0,0,0,0,0,0,180,1.6,8,8,777.7,77777,9,999999999,0,0.0000,0,0,999.000,0.0,99.0
2010,4,18,8,0,?9?9?9?9E0?9?9?9?9*9?9?9?9?9*9?9*9*9?9*_?9?9*9?9*9,21.8,20.8,89,98090,450,1355,397,81,0,81,9725,0,8914,78,180,1.7,8,8,777.7,77777,9,999999999,0,0.0000,0,0,999.000,0.0,99.0
2010,4,18,9,0,?9?9?9?9E0?9?9?9?9*9?9?9?9?9*9?9*9*9?9*_?9?9*9?9*9,24.6,20.6,75,98090,720,1355,413,214,30,198,25640,2869,21740,119,180,2.9,8,8,777.7,77777,9,999999999,0,0.0000,0,0,999.000,0.0,99.0
2010,4,18,10,0,?9?9?9?9E0?9?9?9?9*9?9?9?9?9*9?9*9*9?9*_?9?9*9?9*9,25.8,20.5,74,98090,934,1355,419,331,43,301,39698,4110,33110,139,180,3.9,8,8,777.7,77777,9,999999999,0,0.0000,0,0,999.000,0.1,99.0
2010,4,18,11,0,?9?9?9?9E0?9?9?9?9*9?9?9?9?9*9?9*9*9?9*_?9?9*9?9*9,26.8,20.5,66,98090,1079,1355,425,419,54,376,50257,5090,41377,150,180,5.1,8,8,777.7,77777,9,999999999,0,0.0000,0,0,999.000,0.0,99.0
2010,4,18,12,0,?9?9?9?9E0?9?9?9?9*9?9?9?9?9*9?9*9*9?9*_?9?9*9?9*9,27.6,20.4,63,98090,1143,1355,429,470,64,417,56444,6044,45834,157,180,5.4,8,8,777.7,77777,9,999999999,0,0.0000,0,0,999.000,0.0,99.0
2010,4,18,13,0,?9?9?9?9E0?9?9?9?9*9?9?9?9?9*9?9*9*9?9*_?9?9*9?9*9,28.2,20.4,65,98090,1124,1355,432,482,76,418,57790,7227,46031,161,180,5.5,8,8,777.7,77777,9,999999999,0,0.0000,0,0,999.000,0.0,99.0
2010,4,18,14,0,?9?9?9?9E0?9?9?9?9*9?9?9?9?9*9?9*9*9?9*_?9?9*9?9*9,28.5,20.3,64,98090,1022,1355,434,452,77,394,54193,7299,43303,166,180,7.0,8,8,777.7,77777,9,999999999,0,0.0000,0,0,999.000,0.2,99.0
2010,4,18,15,0,?9?9?9?9E0?9?9?9?9*9?9?9?9?9*9?9*9*9?9*_?9?9*9?9*9,28.6,20.3,64,98090,844,1355,435,383,100,321,45923,9469,35270,164,180,7.3,8,8,777.7,77777,9,999999999,0,0.0000,0,0,999.000,0.0,99.0
2010,4,18,16,0,?9?9?9?9E0?9?9?9?9*9?9?9?9?9*9?9*9*9?9*_?9?9*9?9*9,28.3,20.4,60,98090,602,1355,433,280,205,189,33625,19440,20833,136,180,6.9,8,8,777.7,77777,9,999999999,0,0.0000,0,0,999.000,0.0,99.0
2010,4,18,17,0,?9?9?9?9E0?9?9?9?9*9?9?9?9?9*9?9*9*9?9*_?9?9*9?9*9,27.7,20.4,63,98090,313,1355,430,154,398,62,18420,37780,6816,86,180,6.2,8,8,777.7,77777,9,999999999,0,0.0000,0,0,999.000,0.0,99.0
2010,4,18,18,0,?9?9?9?9E0?9?9?9?9*9?9?9?9?9*9?9*9*9?9*_?9?9*9?9*9,26.8,20.5,66,98090,7,1355,425,26,0,0,3132,0,0,0,180,5.4,8,8,777.7,77777,9,999999999,0,0.0000,0,0,999.000,0.0,99.0
2010,4,18,19,0,?9?9?9?9E0?9?9?9?9*9?9?9?9?9*9?9*9*9?9*_?9?9*9?9*9,26.4,20.5,81,98090,0,1355,422,0,0,0,0,0,0,0,180,4.7,8,8,777.7,77777,9,999999999,15,0.0000,0,0,999.000,15.8,99.0
2010,4,18,20,0,?9?9?9?9E0?9?9?9?9*9?9?9?9?9*9?9*9*9?9*_?9?9*9?9*9,25.9,20.5,74,98090,0,1355,420,0,0,0,0,0,0,0,180,3.4,8,8,777.7,77777,9,999999999,0,0.0000,0,0,999.000,0.2,99.0
2010,4,18,21,0,?9?9?9?9E0?9?9?9?9*9?9?9?9?9*9?9*9*9?9*_?9?9*9?9*9,25.5,20.5,75,98090,0,1355,417,0,0,0,0,0,0,0,180,2.1,8,8,777.7,77777,9,999999999,0,0.0000,0,0,999.000,0.0,99.0
2010,4,18,22,0,?9?9?9?9E0?9?9?9?9*9?9?9?9?9*9?9*9*9?9*_?9?9*9?9*9,25.1,20.6,77,98090,0,1355,415,0,0,0,0,0,0,0,180,1.6,8,8,777.7,77777,9,999999999,0,0.0000,0,0,999.000,0.0,99.0
2010,4,18,23,0,?9?9?9?9E0?9?9?9?9*9?9?9?9?9*9?9*9*9?9*_?9?9*9?9*9,24.6,20.6,75,98090,0,1355,413,0,0,0,0,0,0,0,180,1.6,8,8,777.7,77777,9,999999999,0,0.0000,0,0,999.000,0.0,99.0
2010,4,18,24,0,?9?9?9?9E0?9?9?9?9*9?9?9?9?9*9?9*9*9?9*_?9?9*9?9*9,24.2,20.9,84,98090,0,1355,411,0,0,0,0,0,0,0,180,1.1,8,8,777.7,77777,9,999999999,0,0.0000,0,0,999.000,0.1,99.0
2010,4,19,1,0,?9?9?9?9E0?9?9?9?9*9?9?9?9?9*9?9*9*9?9*_?9?9*9?9*9,24.0,20.9,85,98090,0,1355,410,0,0,0,0,0,0,0,180,1.1,8,8,777.7,77777,9,999999999,0,0.0000,0,0,999.000,0.0,99.0
2010,4,19,2,0,?9?9?9?9E0?9?9?9?9*9?9?9?9?9*9?9*9*9?9*_?9?9*9?9*9,23.8,20.9,82,98090,0,1355,408,0,0,0,0,0,0,0,180,1.1,8,8,777.7,77777,9,999999999,0,0.0000,0,0,999.000,0.0,99.0
2010,4,19,3,0,?9?9?9?9E0?9?9?9?9*9?9?9?9?9*9?9*9*9?9*_?9?9*9?9*9,23.6,20.9,83,98090,0,1355,407,0,0,0,0,0,0,0,180,1.1,8,8,777.7,77777,9,999999999,0,0.0000,0,0,999.000,0.0,99.0
2010,4,19,4,0,?9?9?9?9E0?9?9?9?9*9?9?9?9?9*9?9*9*9?9*_?9?9*9?9*9,23.4,20.9,84,98090,0,1354,406,0,0,0,0,0,0,0,180,1.1,8,8,777.7,77777,9,999999999,0,0.0000,0,0,999.000,0.0,99.0
2010,4,19,5,0,?9?9?9?9E0?9?9?9?9*9?9?9?9?9*9?9*9*9?9*_?9?9*9?9*9,23.1,20.9,89,98090,0,1354,405,0,0,0,0,0,0,0,180,1.1,8,8,777.7,77777,9,999999999,0,0.0000,0,0,999.000,0.1,99.0
2010,4,19,6,0,?9?9?9?9E0?9?9?9?9*9?9?9?9?9*9?9*9*9?9*_?9?9*9?9*9,23.0,21.0,86,98090,0,1354,404,0,0,0,0,0,0,0,180,1.1,8,8,777.7,77777,9,999999999,0,0.0000,0,0,999.000,0.0,99.0
2010,4,19,7,0,?9?9?9?9E0?9?9?9?9*9?9?9?9?9*9?9*9*9?9*_?9?9*9?9*9,22.8,21.0,86,98090,143,1354,403,0,0,0,0,0,0,0,180,1.1,8,8,777.7,77777,9,999999999,0,0.0000,0,0,999.000,0.0,99.0
2010,4,19,8,0,?9?9?9?9E0?9?9?9?9*9?9?9?9?9*9?9*9*9?9*_?9?9*9?9*9,22.7,21.0,87,98090,447,1354,402,95,0,95,11396,0,10447,92,180,1.1,8,8,777.7,77777,9,999999999,0,0.0000,0,0,999.000,0.0,99.0
2010,4,19,9,0,?9?9?9?9E0?9?9?9?9*9?9?9?9?9*9?9*9*9?9*_?9?9*9?9*9,25.0,20.9,76,98090,716,1354,404,292,106,236,34998,10071,25918,142,180,1.2,6,6,777.7,77777,9,999999999,0,0.0000,0,0,999.000,0.0,99.0
2010,4,19,10,0,?9?9?9?9E0?9?9?9?9*9?9?9?9?9*9?9*9*9?9*_?9?9*9?9*9,26.2,20.8,71,98090,930,1354,407,485,237,322,58151,22490,35422,149,180,1.9,5,5,777.7,77777,9,999999999,0,0.0000,0,0,999.000,0.0,99.0
2010,4,19,11,0,?9?9?9?9E0?9?9?9?9*9?9?9?9?9*9?9*9*9?9*_?9?9*9?9*9,26.9,20.8,68,98090,1074,1354,419,501,157,377,60178,14951,41431,151,180,2.5,7,7,777.7,77777,9,999999999,0,0.0000,0,0,999.000,0.0,99.0
2010,4,19,12,0,?9?9?9?9E0?9?9?9?9*9?9?9?9?9*9?9*9*9?9*_?9?9*9?9*9,27.3,20.8,67,98090,1138,1354,421,514,131,404,61651,12402,44439,153,180,3.3,7,7,777.7,77777,9,999999999,0,0.0000,0,0,999.000,0.0,99.0
2010,4,19,13,0,?9?9?9?9E0?9?9?9?9*9?9?9?9?9*9?9*9*9?9*_?9?9*9?9*9,27.8,20.8,65,98090,1119,1354,419,622,276,394,74626,26237,43303,152,180,4.0,6,6,777.7,77777,9,999999999,0,0.0000,0,0,999.000,0.0,99.0
2010,4,19,14,0,?9?9?9?9E0?9?9?9?9*9?9?9?9?9*9?9*9*9?9*_?9?9*9?9*9,28.2,20.8,63,98090,1016,1354,411,686,580,251,82356,55129,27575,106,180,4.8,3,3,777.7,77777,9,999999999,0,0.0000,0,0,999.000,0.0,99.0
2010,4,19,15,0,?9?9?9?9E0?9?9?9?9*9?9?9?9?9*9?9*9*9?9*_?9?9*9?9*9,28.5,20.8,63,98090,838,1354,413,610,810,109,73220,76912,11993,56,180,4.5,3,3,777.7,77777,9,999999999,0,0.0000,0,0,999.000,0.0,99.0
2010,4,19,16,0,?9?9?9?9E0?9?9?9?9*9?9?9?9?9*9?9*9*9?9*_?9?9*9?9*9,28.5,20.8,63,98090,597,1354,409,473,751,142,56705,71323,15614,103,180,4.7,2,2,777.7,77777,9,999999999,0,0.0000,0,0,999.000,0.0,99.0
2010,4,19,17,0,?9?9?9?9E0?9?9?9?9*9?9?9?9?9*9?9*9*9?9*_?9?9*9?9*9,28.1,20.8,64,98090,309,1354,394,309,463,204,37078,44019,22426,286,180,4.5,0,0,777.7,77777,9,999999999,0,0.0000,0,0,999.000,0.0,99.0
2010,4,19,18,0,?9?9?9?9E0?9?9?9?9*9?9?9?9?9*9?9*9*9?9*_?9?9*9?9*9,27.4,20.8,66,98090,3,1354,422,64,0,0,7645,0,0,0,180,4.3,7,7,777.7,77777,9,999999999,0,0.0000,0,0,999.000,0.0,99.0
2010,4,19,19,0,?9?9?9?9E0?9?9?9?9*9?9?9?9?9*9?9*9*9?9*_?9?9*9?9*9,26.8,20.8,73,98090,0,1354,418,0,0,0,0,0,0,0,180,3.5,7,7,777.7,77777,9,999999999,0,0.0000,0,0,999.000,0.0,99.0
2010,4,19,20,0,?9?9?9?9E0?9?9?9?9*9?9?9?9?9*9?9*9*9?9*_?9?9*9?9*9,26.2,20.8,76,98090,0,1354,415,0,0,0,0,0,0,0,180,2.7,7,7,777.7,77777,9,999999999,0,0.0000,0,0,999.000,0.0,99.0
2010,4,19,21,0,?9?9?9?9E0?9?9?9?9*9?9?9?9?9*9?9*9*9?9*_?9?9*9?9*9,25.6,20.9,78,98090,0,1354,412,0,0,0,0,0,0,0,180,1.7,7,7,777.7,77777,9,999999999,0,0.0000,0,0,999.000,0.2,99.0
2010,4,19,22,0,?9?9?9?9E0?9?9?9?9*9?9?9?9?9*9?9*9*9?9*_?9?9*9?9*9,25.1,20.9,89,98090,0,1354,409,0,0,0,0,0,0,0,180,1.6,7,7,777.7,77777,9,999999999,6,0.0000,0,0,999.000,6.3,99.0
2010,4,19,23,0,?9?9?9?9E0?9?9?9?9*9?9?9?9?9*9?9*9*9?9*_?9?9*9?9*9,24.5,20.9,83,98090,0,1354,406,0,0,0,0,0,0,0,180,1.3,7,7,777.7,77777,9,999999999,0,0.0000,0,0,999.000,0.3,99.0
2010,4,19,24,0,?9?9?9?9E0?9?9?9?9*9?9?9?9?9*9?9*9*9?9*_?9?9*9?9*9,23.9,21.0,80,98090,0,1354,403,0,0,0,0,0,0,0,180,1.3,7,7,777.7,77777,9,999999999,0,0.0000,0,0,999.000,0.0,99.0
2010,4,20,1,0,?9?9?9?9E0?9?9?9?9*9?9?9?9?9*9?9*9*9?9*_?9?9*9?9*9,23.6,20.9,80,98090,0,1354,407,0,0,0,0,0,0,0,180,1.2,8,8,777.7,77777,9,999999999,0,0.0000,0,0,999.000,0.0,99.0
2010,4,20,2,0,?9?9?9?9E0?9?9?9?9*9?9?9?9?9*9?9*9*9?9*_?9?9*9?9*9,23.3,20.7,81,98090,0,1354,406,0,0,0,0,0,0,0,180,1.1,8,8,777.7,77777,9,999999999,0,0.0000,0,0,999.000,0.0,99.0
2010,4,20,3,0,?9?9?9?9E0?9?9?9?9*9?9?9?9?9*9?9*9*9?9*_?9?9*9?9*9,23.0,20.6,81,98090,0,1354,404,0,0,0,0,0,0,0,180,1.1,8,8,777.7,77777,9,999999999,0,0.0000,0,0,999.000,0.0,99.0
2010,4,20,4,0,?9?9?9?9E0?9?9?9?9*9?9?9?9?9*9?9*9*9?9*_?9?9*9?9*9,22.8,20.4,82,98090,0,1353,402,0,0,0,0,0,0,0,180,1.1,8,8,777.7,77777,9,999999999,0,0.0000,0,0,999.000,0.0,99.0
2010,4,20,5,0,?9?9?9?9E0?9?9?9?9*9?9?9?9?9*9?9*9*9?9*_?9?9*9?9*9,22.5,20.3,82,98090,0,1353,400,0,0,0,0,0,0,0,180,1.1,8,8,777.7,77777,9,999999999,0,0.0000,0,0,999.000,0.0,99.0
2010,4,20,6,0,?9?9?9?9E0?9?9?9?9*9?9?9?9?9*9?9*9*9?9*_?9?9*9?9*9,22.2,20.2,82,98090,0,1353,399,0,0,0,0,0,0,0,180,1.1,8,8,777.7,77777,9,999999999,0,0.0000,0,0,999.000,0.0,99.0
2010,4,20,7,0,?9?9?9?9E0?9?9?9?9*9?9?9?9?9*9?9*9*9?9*_?9?9*9?9*9,22.0,20.1,88,98090,141,1353,398,0,0,0,0,0,0,0,180,1.1,8,8,777.7,77777,9,999999999,1,0.0000,0,0,999.000,1.9,99.0
2010,4,20,8,0,?9?9?9?9E0?9?9?9?9*9?9?9?9?9*9?9*9*9?9*_?9?9*9?9*9,21.9,20.0,86,98090,444,1353,397,79,0,79,9527,0,8733,77,180,1.1,8,8,777.7,77777,9,999999999,0,0.0000,0,0,999.000,0.0,99.0
2010,4,20,9,0,?9?9?9?9E0?9?9?9?9*9?9?9?9?9*9?9*9*9?9*_?9?9*9?9*9,24.1,21.1,80,98090,713,1353,410,228,44,204,27317,4198,22482,124,180,1.5,8,8,777.7,77777,9,999999999,0,0.0000,0,0,999.000,0.0,99.0
2010,4,20,10,0,?9?9?9?9E0?9?9?9?9*9?9?9?9?9*9?9*9*9?9*_?9?9*9?9*9,24.9,21.5,78,98090,926,1353,415,321,40,294,38507,3765,32315,137,180,2.3,8,8,777.7,77777,9,999999999,0,0.0000,0,0,999.000,0.0,99.0
2010,4,20,11,0,?9?9?9?9E0?9?9?9?9*9?9?9?9?9*9?9*9*9?9*_?9?9*9?9*9,25.8,21.9,77,98090,1069,1353,414,458,111,370,54900,10534,40686,149,180,3.3,7,7,777.7,77777,9,999999999,0,0.0000,0,0,999.000,0.0,99.0
2010,4,20,12,0,?9?9?9?9E0?9?9?9?9*9?9?9?9?9*9?9*9*9?9*_?9?9*9?9*9,26.6,22.3,76,98090,1133,1353,415,558,186,403,66967,17630,44287,153,180,4.1,6,6,777.7,77777,9,999999999,0,0.0000,0,0,999.000,0.0,99.0
2010,4,20,13,0,?9?9?9?9E0?9?9?9?9*9?9?9?9?9*9?9*9*9?9*_?9?9*9?9*9,27.3,22.6,75,98090,1114,1353,419,610,319,348,73223,30310,38239,134,180,4.3,6,6,777.7,77777,9,999999999,0,0.0000,0,0,999.000,0.0,99.0
2010,4,20,14,0,?9?9?9?9E0?9?9?9?9*9?9?9?9?9*9?9*9*9?9*_?9?9*9?9*9,27.0,22.5,76,98090,1011,1353,428,280,29,258,33568,2752,28389,110,180,4.8,8,8,777.7,77777,9,999999999,0,0.0000,0,0,999.000,0.0,99.0
2010,4,20,15,0,?9?9?9?9E0?9?9?9?9*9?9?9?9?9*9?9*9*9?9*_?9?9*9?9*9,27.0,22.5,75,98090,833,1353,429,378,151,285,45384,14335,31386,148,180,5.3,8,8,777.7,77777,9,999999999,0,0.0000,0,0,999.000,0.0,99.0
2010,4,20,16,0,?9?9?9?9E0?9?9?9?9*9?9?9?9?9*9?9*9*9?9*_?9?9*9?9*9,26.8,22.4,76,98090,592,1353,427,276,208,185,33104,19715,20373,135,180,5.3,8,8,777.7,77777,9,999999999,0,0.0000,0,0,999.000,0.0,99.0
2010,4,20,17,0,?9?9?9?9E0?9?9?9?9*9?9?9?9?9*9?9*9*9?9*_?9?9*9?9*9,26.3,22.1,76,98090,304,1353,424,150,406,59,17945,38577,6464,84,180,5.7,8,8,777.7,77777,9,999999999,0,0.0000,0,0,999.000,0.0,99.0
2010,4,20,18,0,?9?9?9?9E0?9?9?9?9*9?9?9?9?9*9?9*9*9?9*_?9?9*9?9*9,25.6,21.8,77,98090,0,1353,419,24,0,0,2825,0,0,0,180,5.0,8,8,777.7,77777,9,999999999,0,0.0000,0,0,999.000,0.0,99.0
2010,4,20,19,0,?9?9?9?9E0?9?9?9?9*9?9?9?9?9*9?9*9*9?9*_?9?9*9?9*9,25.1,21.6,78,98090,0,1353,417,0,0,0,0,0,0,0,180,4.6,8,8,777.7,77777,9,999999999,0,0.0000,0,0,999.000,0.0,99.0
2010,4,20,20,0,?9?9?9?9E0?9?9?9?9*9?9?9?9?9*9?9*9*9?9*_?9?9*9?9*9,24.7,21.4,79,98090,0,1353,414,0,0,0,0,0,0,0,180,3.7,8,8,777.7,77777,9,999999999,0,0.0000,0,0,999.000,0.0,99.0
2010,4,20,21,0,?9?9?9?9E0?9?9?9?9*9?9?9?9?9*9?9*9*9?9*_?9?9*9?9*9,24.2,21.2,79,98090,0,1353,411,0,0,0,0,0,0,0,180,2.4,8,8,777.7,77777,9,999999999,0,0.0000,0,0,999.000,0.0,99.0
2010,4,20,22,0,?9?9?9?9E0?9?9?9?9*9?9?9?9?9*9?9*9*9?9*_?9?9*9?9*9,23.8,20.9,83,98090,0,1353,408,0,0,0,0,0,0,0,180,2.0,8,8,777.7,77777,9,999999999,0,0.0000,0,0,999.000,0.0,99.0
2010,4,20,23,0,?9?9?9?9E0?9?9?9?9*9?9?9?9?9*9?9*9*9?9*_?9?9*9?9*9,23.3,20.7,84,98090,0,1353,406,0,0,0,0,0,0,0,180,1.5,8,8,777.7,77777,9,999999999,0,0.0000,0,0,999.000,0.1,99.0
2010,4,20,24,0,?9?9?9?9E0?9?9?9?9*9?9?9?9?9*9?9*9*9?9*_?9?9*9?9*9,22.9,21.1,88,98090,0,1353,404,0,0,0,0,0,0,0,180,2.5,8,8,777.7,77777,9,999999999,0,0.0000,0,0,999.000,0.0,99.0
2010,4,21,1,0,?9?9?9?9E0?9?9?9?9*9?9?9?9?9*9?9*9*9?9*_?9?9*9?9*9,22.6,21.0,89,98090,0,1353,402,0,0,0,0,0,0,0,180,2.2,8,8,777.7,77777,9,999999999,0,0.0000,0,0,999.000,0.3,99.0
2010,4,21,2,0,?9?9?9?9E0?9?9?9?9*9?9?9?9?9*9?9*9*9?9*_?9?9*9?9*9,22.4,20.8,89,98090,0,1353,401,0,0,0,0,0,0,0,180,1.8,8,8,777.7,77777,9,999999999,0,0.0000,0,0,999.000,0.1,99.0
2010,4,21,3,0,?9?9?9?9E0?9?9?9?9*9?9?9?9?9*9?9*9*9?9*_?9?9*9?9*9,22.2,20.7,89,98090,0,1353,399,0,0,0,0,0,0,0,180,1.6,8,8,777.7,77777,9,999999999,0,0.0000,0,0,999.000,0.1,99.0
2010,4,21,4,0,?9?9?9?9E0?9?9?9?9*9?9?9?9?9*9?9*9*9?9*_?9?9*9?9*9,22.0,20.5,87,98090,0,1352,398,0,0,0,0,0,0,0,180,1.5,8,8,777.7,77777,9,999999999,0,0.0000,0,0,999.000,0.0,99.0
2010,4,21,5,0,?9?9?9?9E0?9?9?9?9*9?9?9?9?9*9?9*9*9?9*_?9?9*9?9*9,21.8,20.4,87,98090,0,1352,397,0,0,0,0,0,0,0,180,1.5,8,8,777.7,77777,9,999999999,0,0.0000,0,0,999.000,0.0,99.0
2010,4,21,6,0,?9?9?9?9E0?9?9?9?9*9?9?9?9?9*9?9*9*9?9*_?9?9*9?9*9,21.6,20.3,87,98090,0,1352,396,0,0,0,0,0,0,0,180,1.5,8,8,777.7,77777,9,999999999,0,0.0000,0,0,999.000,0.0,99.0
2010,4,21,7,0,?9?9?9?9E0?9?9?9?9*9?9?9?9?9*9?9*9*9?9*_?9?9*9?9*9,21.4,20.2,87,98090,139,1352,395,0,0,0,0,0,0,0,180,1.5,8,8,777.7,77777,9,999999999,0,0.0000,0,0,999.000,0.0,99.0
2010,4,21,8,0,?9?9?9?9E0?9?9?9?9*9?9?9?9?9*9?9*9*9?9*_?9?9*9?9*9,21.3,20.1,87,98090,442,1352,394,66,0,66,7966,0,7302,65,180,1.9,8,8,777.7,77777,9,999999999,0,0.0000,0,0,999.000,0.0,99.0
2010,4,21,9,0,?9?9?9?9E0?9?9?9?9*9?9?9?9?9*9?9*9*9?9*_?9?9*9?9*9,23.4,21.4,85,98090,709,1352,407,178,9,173,21311,823,19035,105,180,3.0,8,8,777.7,77777,9,999999999,0,0.0000,0,0,999.000,0.0,99.0
2010,4,21,10,0,?9?9?9?9E0?9?9?9?9*9?9?9?9?9*9?9*9*9?9*_?9?9*9?9*9,24.3,21.9,84,98090,922,1352,413,276,14,266,33098,1322,29297,124,180,4.8,8,8,777.7,77777,9,999999999,0,0.0000,0,0,999.000,0.0,99.0
2010,4,21,11,0,?9?9?9?9E0?9?9?9?9*9?9?9?9?9*9?9*9*9?9*_?9?9*9?9*9,25.1,22.4,83,98090,1065,1352,417,349,28,328,41939,2650,36028,132,180,6.0,8,8,777.7,77777,9,999999999,0,0.0000,0,0,999.000,0.0,99.0
2010,4,21,12,0,?9?9?9?9E0?9?9?9?9*9?9?9?9?9*9?9*9*9?9*_?9?9*9?9*9,25.7,22.7,82,98090,1129,1352,421,392,34,364,47098,3189,40092,139,180,7.6,8,8,777.7,77777,9,999999999,0,0.0000,0,0,999.000,0.0,99.0
2010,4,21,13,0,?9?9?9?9E0?9?9?9?9*9?9?9?9?9*9?9*9*9?9*_?9?9*9?9*9,26.1,22.9,82,98090,1108,1352,424,402,40,369,48184,3773,40588,143,180,7.3,8,8,777.7,77777,9,999999999,0,0.0000,0,0,999.000,0.0,99.0
2010,4,21,14,0,?9?9?9?9E0?9?9?9?9*9?9?9?9?9*9?9*9*9?9*_?9?9*9?9*9,26.4,23.0,81,98090,1006,1352,426,376,33,351,45118,3140,38654,150,180,7.7,8,8,777.7,77777,9,999999999,0,0.0000,0,0,999.000,0.0,99.0
2010,4,21,15,0,?9?9?9?9E0?9?9?9?9*9?9?9?9?9*9?9*9*9?9*_?9?9*9?9*9,26.4,23.1,81,98090,828,1352,426,318,51,287,38126,4824,31531,149,180,7.9,8,8,777.7,77777,9,999999999,0,0.0000,0,0,999.000,0.0,99.0
2010,4,21,16,0,?9?9?9?9E0?9?9?9?9*9?9?9?9?9*9?9*9*9?9*_?9?9*9?9*9,26.2,23.0,82,98090,587,1352,425,231,107,185,27758,10132,20360,136,180,7.7,8,8,777.7,77777,9,999999999,0,0.0000,0,0,999.000,0.0,99.0
2010,4,21,17,0,?9?9?9?9E0?9?9?9?9*9?9?9?9?9*9?9*9*9?9*_?9?9*9?9*9,25.8,22.7,82,98090,300,1352,422,125,181,85,14968,17177,9339,123,180,7.2,8,8,777.7,77777,9,999999999,0,0.0000,0,0,999.000,0.0,99.0
2010,4,21,18,0,?9?9?9?9E0?9?9?9?9*9?9?9?9?9*9?9*9*9?9*_?9?9*9?9*9,25.1,22.3,83,98090,0,1352,417,19,0,0,2264,0,0,0,180,5.8,8,8,777.7,77777,9,999999999,0,0.0000,0,0,999.000,0.0,99.0
2010,4,21,19,0,?9?9?9?9E0?9?9?9?9*9?9?9?9?9*9?9*9*9?9*_?9?9*9?9*9,24.6,22.1,86,98090,0,1352,415,0,0,0,0,0,0,0,180,4.3,8,8,777.7,77777,9,999999999,0,0.0000,0,0,999.000,0.2,99.0
2010,4,21,20,0,?9?9?9?9E0?9?9?9?9*9?9?9?9?9*9?9*9*9?9*_?9?9*9?9*9,24.2,21.9,87,98090,0,1352,412,0,0,0,0,0,0,0,180,3.4,8,8,777.7,77777,9,999999999,0,0.0000,0,0,999.000,0.0,99.0
2010,4,21,21,0,?9?9?9?9E0?9?9?9?9*9?9?9?9?9*9?9*9*9?9*_?9?9*9?9*9,23.8,21.6,93,98090,0,1352,409,0,0,0,0,0,0,0,180,2.7,8,8,777.7,77777,9,999999999,6,0.0000,0,0,999.000,6.3,99.0
2010,4,21,22,0,?9?9?9?9E0?9?9?9?9*9?9?9?9?9*9?9*9*9?9*_?9?9*9?9*9,23.4,21.4,88,98090,0,1352,407,0,0,0,0,0,0,0,180,1.5,8,8,777.7,77777,9,999999999,0,0.0000,0,0,999.000,0.0,99.0
2010,4,21,23,0,?9?9?9?9E0?9?9?9?9*9?9?9?9?9*9?9*9*9?9*_?9?9*9?9*9,23.0,21.1,85,98090,0,1352,404,0,0,0,0,0,0,0,180,1.6,8,8,777.7,77777,9,999999999,0,0.0000,0,0,999.000,0.0,99.0
2010,4,21,24,0,?9?9?9?9E0?9?9?9?9*9?9?9?9?9*9?9*9*9?9*_?9?9*9?9*9,22.5,19.8,86,98090,0,1352,400,0,0,0,0,0,0,0,180,5.5,8,8,777.7,77777,9,999999999,0,0.0000,0,0,999.000,0.4,99.0
2010,4,22,1,0,?9?9?9?9E0?9?9?9?9*9?9?9?9?9*9?9*9*9?9*_?9?9*9?9*9,22.3,19.8,87,98090,0,1352,399,0,0,0,0,0,0,0,180,5.2,8,8,777.7,77777,9,999999999,0,0.0000,0,0,999.000,0.3,99.0
2010,4,22,2,0,?9?9?9?9E0?9?9?9?9*9?9?9?9?9*9?9*9*9?9*_?9?9*9?9*9,22.1,19.8,92,98090,0,1352,398,0,0,0,0,0,0,0,180,5.3,8,8,777.7,77777,9,999999999,1,0.0000,0,0,999.000,1.0,99.0
2010,4,22,3,0,?9?9?9?9E0?9?9?9?9*9?9?9?9?9*9?9*9*9?9*_?9?9*9?9*9,21.9,19.9,88,98090,0,1352,397,0,0,0,0,0,0,0,180,4.7,8,8,777.7,77777,9,999999999,0,0.0000,0,0,999.000,0.5,99.0
2010,4,22,4,0,?9?9?9?9E0?9?9?9?9*9?9?9?9?9*9?9*9*9?9*_?9?9*9?9*9,21.7,19.9,89,98090,0,1351,396,0,0,0,0,0,0,0,180,5.0,8,8,777.7,77777,9,999999999,0,0.0000,0,0,999.000,0.1,99.0
2010,4,22,5,0,?9?9?9?9E0?9?9?9?9*9?9?9?9?9*9?9*9*9?9*_?9?9*9?9*9,21.5,19.9,90,98090,0,1351,394,0,0,0,0,0,0,0,180,4.5,8,8,777.7,77777,9,999999999,0,0.0000,0,0,999.000,0.7,99.0
2010,4,22,6,0,?9?9?9?9E0?9?9?9?9*9?9?9?9?9*9?9*9*9?9*_?9?9*9?9*9,21.3,19.9,91,98090,0,1351,394,0,0,0,0,0,0,0,180,5.2,8,8,777.7,77777,9,999999999,0,0.0000,0,0,999.000,0.0,99.0
2010,4,22,7,0,?9?9?9?9E0?9?9?9?9*9?9?9?9?9*9?9*9*9?9*_?9?9*9?9*9,21.2,19.9,92,98090,137,1351,393,0,0,0,0,0,0,0,180,5.0,8,8,777.7,77777,9,999999999,0,0.0000,0,0,999.000,0.1,99.0
2010,4,22,8,0,?9?9?9?9E0?9?9?9?9*9?9?9?9?9*9?9*9*9?9*_?9?9*9?9*9,21.0,19.9,93,98090,439,1351,392,50,0,50,5992,0,5492,49,180,3.4,8,8,777.7,77777,9,999999999,0,0.0000,0,0,999.000,0.1,99.0
2010,4,22,9,0,?9?9?9?9E0?9?9?9?9*9?9?9?9?9*9?9*9*9?9*_?9?9*9?9*9,23.2,19.8,91,98090,706,1351,404,134,0,134,16112,0,14770,82,180,3.9,8,8,777.7,77777,9,999999999,20,0.0000,0,0,999.000,20.4,99.0
2010,4,22,10,0,?9?9?9?9E0?9?9?9?9*9?9?9?9?9*9?9*9*9?9*_?9?9*9?9*9,24.1,19.8,83,98090,918,1351,409,209,4,206,25051,388,22659,97,180,4.0,8,8,777.7,77777,9,999999999,1,0.0000,0,0,999.000,1.7,99.0
2010,4,22,11,0,?9?9?9?9E0?9?9?9?9*9?9?9?9?9*9?9*9*9?9*_?9?9*9?9*9,24.9,19.8,76,98090,1060,1351,413,265,12,256,31752,1093,28113,104,180,3.8,8,8,777.7,77777,9,999999999,0,0.0000,0,0,999.000,0.0,99.0
2010,4,22,12,0,?9?9?9?9E0?9?9?9?9*9?9?9?9?9*9?9*9*9?9*_?9?9*9?9*9,25.5,19.8,69,98090,1124,1351,417,297,19,281,35658,1810,30944,108,180,3.9,8,8,777.7,77777,9,999999999,0,0.0000,0,0,999.000,0.0,99.0
2010,4,22,13,0,?9?9?9?9E0?9?9?9?9*9?9?9?9?9*9?9*9*9?9*_?9?9*9?9*9,26.0,19.7,72,98090,1103,1351,419,304,21,287,36472,2002,31541,112,180,3.2,8,8,777.7,77777,9,999999999,0,0.0000,0,0,999.000,0.0,99.0
2010,4,22,14,0,?9?9?9?9E0?9?9?9?9*9?9?9?9?9*9?9*9*9?9*_?9?9*9?9*9,26.2,19.7,67,98090,1001,1351,420,284,10,277,34134,965,30463,119,180,3.9,8,8,777.7,77777,9,999999999,0,0.0000,0,0,999.000,0.0,99.0
2010,4,22,15,0,?9?9?9?9E0?9?9?9?9*9?9?9?9?9*9?9*9*9?9*_?9?9*9?9*9,26.3,19.7,67,98090,823,1351,421,240,13,232,28819,1197,25574,122,180,3.9,8,8,777.7,77777,9,999999999,0,0.0000,0,0,999.000,0.0,99.0
2010,4,22,16,0,?9?9?9?9E0?9?9?9?9*9?9?9?9?9*9?9*9*9?9*_?9?9*9?9*9,26.1,19.7,72,98090,582,1351,420,175,31,161,20942,2900,17753,119,180,3.6,8,8,777.7,77777,9,999999999,0,0.0000,0,0,999.000,0.0,99.0
2010,4,22,17,0,?9?9?9?9E0?9?9?9?9*9?9?9?9?9*9?9*9*9?9*_?9?9*9?9*9,25.6,19.8,73,98090,295,1351,417,94,53,82,11233,5024,9034,120,180,3.2,8,8,777.7,77777,9,999999999,0,0.0000,0,0,999.000,0.2,99.0
2010,4,22,18,0,?9?9?9?9E0?9?9?9?9*9?9?9?9?9*9?9*9*9?9*_?9?9*9?9*9,24.9,19.8,72,98090,0,1351,413,14,0,0,1631,0,0,0,180,3.2,8,8,777.7,77777,9,999999999,0,0.0000,0,0,999.000,0.0,99.0
2010,4,22,19,0,?9?9?9?9E0?9?9?9?9*9?9?9?9?9*9?9*9*9?9*_?9?9*9?9*9,24.5,19.8,73,98090,0,1351,411,0,0,0,0,0,0,0,180,3.2,8,8,777.7,77777,9,999999999,0,0.0000,0,0,999.000,0.0,99.0
2010,4,22,20,0,?9?9?9?9E0?9?9?9?9*9?9?9?9?9*9?9*9*9?9*_?9?9*9?9*9,24.1,19.8,75,98090,0,1351,409,0,0,0,0,0,0,0,180,3.2,8,8,777.7,77777,9,999999999,0,0.0000,0,0,999.000,0.0,99.0
2010,4,22,21,0,?9?9?9?9E0?9?9?9?9*9?9?9?9?9*9?9*9*9?9*_?9?9*9?9*9,23.8,19.8,80,98090,0,1351,407,0,0,0,0,0,0,0,180,3.2,8,8,777.7,77777,9,999999999,0,0.0000,0,0,999.000,0.2,99.0
2010,4,22,22,0,?9?9?9?9E0?9?9?9?9*9?9?9?9?9*9?9*9*9?9*_?9?9*9?9*9,23.4,19.8,82,98090,0,1351,405,0,0,0,0,0,0,0,180,3.2,8,8,777.7,77777,9,999999999,0,0.0000,0,0,999.000,0.1,99.0
2010,4,22,23,0,?9?9?9?9E0?9?9?9?9*9?9?9?9?9*9?9*9*9?9*_?9?9*9?9*9,23.0,19.8,79,98090,0,1351,403,0,0,0,0,0,0,0,180,3.2,8,8,777.7,77777,9,999999999,0,0.0000,0,0,999.000,0.0,99.0
2010,4,22,24,0,?9?9?9?9E0?9?9?9?9*9?9?9?9?9*9?9*9*9?9*_?9?9*9?9*9,22.7,18.8,76,98090,0,1351,400,0,0,0,0,0,0,0,180,1.9,8,8,777.7,77777,9,999999999,0,0.0000,0,0,999.000,0.0,99.0
2010,4,23,1,0,?9?9?9?9E0?9?9?9?9*9?9?9?9?9*9?9*9*9?9*_?9?9*9?9*9,22.5,18.8,80,98090,0,1351,399,0,0,0,0,0,0,0,180,1.9,8,8,777.7,77777,9,999999999,0,0.0000,0,0,999.000,0.1,99.0
2010,4,23,2,0,?9?9?9?9E0?9?9?9?9*9?9?9?9?9*9?9*9*9?9*_?9?9*9?9*9,22.3,18.7,77,98090,0,1351,398,0,0,0,0,0,0,0,180,1.9,8,8,777.7,77777,9,999999999,0,0.0000,0,0,999.000,0.0,99.0
2010,4,23,3,0,?9?9?9?9E0?9?9?9?9*9?9?9?9?9*9?9*9*9?9*_?9?9*9?9*9,22.1,18.7,77,98090,0,1351,397,0,0,0,0,0,0,0,180,1.9,8,8,777.7,77777,9,999999999,0,0.0000,0,0,999.000,0.0,99.0
2010,4,23,4,0,?9?9?9?9E0?9?9?9?9*9?9?9?9?9*9?9*9*9?9*_?9?9*9?9*9,21.9,18.6,82,98090,0,1351,395,0,0,0,0,0,0,0,180,1.9,8,8,777.7,77777,9,999999999,0,0.0000,0,0,999.000,0.0,99.0
2010,4,23,5,0,?9?9?9?9E0?9?9?9?9*9?9?9?9?9*9?9*9*9?9*_?9?9*9?9*9,21.8,18.6,78,98090,0,1351,394,0,0,0,0,0,0,0,180,1.9,8,8,777.7,77777,9,999999999,0,0.0000,0,0,999.000,0.0,99.0
2010,4,23,6,0,?9?9?9?9E0?9?9?9?9*9?9?9?9?9*9?9*9*9?9*_?9?9*9?9*9,21.6,18.6,79,98090,0,1351,394,0,0,0,0,0,0,0,180,1.9,8,8,777.7,77777,9,999999999,0,0.0000,0,0,999.000,0.0,99.0
2010,4,23,7,0,?9?9?9?9E0?9?9?9?9*9?9?9?9?9*9?9*9*9?9*_?9?9*9?9*9,21.5,18.5,83,98090,135,1351,393,0,0,0,0,0,0,0,180,1.9,8,8,777.7,77777,9,999999999,0,0.0000,0,0,999.000,0.1,99.0
2010,4,23,8,0,?9?9?9?9E0?9?9?9?9*9?9?9?9?9*9?9*9*9?9*_?9?9*9?9*9,21.4,18.5,80,98090,436,1351,392,79,0,79,9486,0,8696,78,180,1.9,8,8,777.7,77777,9,999999999,0,0.0000,0,0,999.000,0.0,99.0
2010,4,23,9,0,?9?9?9?9E0?9?9?9?9*9?9?9?9?9*9?9*9*9?9*_?9?9*9?9*9,23.8,19.1,72,98090,702,1351,406,214,34,196,25639,3275,21532,120,180,1.9,8,8,777.7,77777,9,999999999,0,0.0000,0,0,999.000,0.0,99.0
2010,4,23,10,0,?9?9?9?9E0?9?9?9?9*9?9?9?9?9*9?9*9*9?9*_?9?9*9?9*9,24.9,19.3,69,98090,914,1351,412,333,49,299,39910,4652,32940,141,180,1.9,8,8,777.7,77777,9,999999999,0,0.0000,0,0,999.000,0.0,99.0
2010,4,23,11,0,?9?9?9?9E0?9?9?9?9*9?9?9?9?9*9?9*9*9?9*_?9?9*9?9*9,25.7,19.5,71,98090,1056,1351,417,422,86,355,50602,8125,39032,145,180,1.9,8,8,777.7,77777,9,999999999,0,0.0000,0,0,999.000,0.0,99.0
2010,4,23,12,0,?9?9?9?9E0?9?9?9?9*9?9?9?9?9*9?9*9*9?9*_?9?9*9?9*9,25.8,19.5,75,98090,1119,1351,418,272,21,254,32636,2014,27986,98,180,2.7,8,8,777.7,77777,9,999999999,2,0.0000,0,0,999.000,2.8,99.0
2010,4,23,13,0,?9?9?9?9E0?9?9?9?9*9?9?9?9?9*9?9*9*9?9*_?9?9*9?9*9,26.4,19.6,65,98090,1098,1351,415,484,136,373,58110,12947,41082,146,180,3.6,7,7,777.7,77777,9,999999999,0,0.0000,0,0,999.000,0.0,99.0
2010,4,23,14,0,?9?9?9?9E0?9?9?9?9*9?9?9?9?9*9?9*9*9?9*_?9?9*9?9*9,26.5,19.6,65,98090,995,1351,422,332,30,310,39883,2869,34112,134,180,4.6,8,8,777.7,77777,9,999999999,0,0.0000,0,0,999.000,0.0,99.0
2010,4,23,15,0,?9?9?9?9E0?9?9?9?9*9?9?9?9?9*9?9*9*9?9*_?9?9*9?9*9,26.6,19.7,65,98090,818,1351,423,384,417,132,46092,39644,14477,69,180,4.8,8,8,777.7,77777,9,999999999,0,0.0000,0,0,999.000,0.0,99.0
2010,4,23,16,0,?9?9?9?9E0?9?9?9?9*9?9?9?9?9*9?9*9*9?9*_?9?9*9?9*9,27.2,19.8,64,98090,577,1351,388,614,557,377,73736,52903,41453,281,180,3.7,0,0,777.7,77777,9,999999999,0,0.0000,0,0,999.000,0.0,99.0
2010,4,23,17,0,?9?9?9?9E0?9?9?9?9*9?9?9?9?9*9?9*9*9?9*_?9?9*9?9*9,26.9,19.7,64,98090,291,1351,406,260,612,129,31235,58124,14235,193,180,3.2,4,4,777.7,77777,9,999999999,0,0.0000,0,0,999.000,0.0,99.0
2010,4,23,18,0,?9?9?9?9E0?9?9?9?9*9?9?9?9?9*9?9*9*9?9*_?9?9*9?9*9,26.1,19.6,66,98090,0,1351,420,21,0,0,2471,0,0,0,180,1.9,8,8,777.7,77777,9,999999999,0,0.0000,0,0,999.000,0.0,99.0
2010,4,23,19,0,?9?9?9?9E0?9?9?9?9*9?9?9?9?9*9?9*9*9?9*_?9?9*9?9*9,25.7,19.5,67,98090,0,1351,417,0,0,0,0,0,0,0,180,1.9,8,8,777.7,77777,9,999999999,0,0.0000,0,0,999.000,0.0,99.0
2010,4,23,20,0,?9?9?9?9E0?9?9?9?9*9?9?9?9?9*9?9*9*9?9*_?9?9*9?9*9,25.2,19.4,68,98090,0,1351,414,0,0,0,0,0,0,0,180,1.9,8,8,777.7,77777,9,999999999,0,0.0000,0,0,999.000,0.0,99.0
2010,4,23,21,0,?9?9?9?9E0?9?9?9?9*9?9?9?9?9*9?9*9*9?9*_?9?9*9?9*9,24.8,19.3,70,98090,0,1351,412,0,0,0,0,0,0,0,180,1.9,8,8,777.7,77777,9,999999999,0,0.0000,0,0,999.000,0.0,99.0
2010,4,23,22,0,?9?9?9?9E0?9?9?9?9*9?9?9?9?9*9?9*9*9?9*_?9?9*9?9*9,24.3,19.2,71,98090,0,1351,409,0,0,0,0,0,0,0,180,1.9,8,8,777.7,77777,9,999999999,0,0.0000,0,0,999.000,0.0,99.0
2010,4,23,23,0,?9?9?9?9E0?9?9?9?9*9?9?9?9?9*9?9*9*9?9*_?9?9*9?9*9,23.8,19.1,72,98090,0,1351,406,0,0,0,0,0,0,0,180,1.9,8,8,777.7,77777,9,999999999,0,0.0000,0,0,999.000,0.0,99.0
2010,4,23,24,0,?9?9?9?9E0?9?9?9?9*9?9?9?9?9*9?9*9*9?9*_?9?9*9?9*9,23.4,20.6,84,98090,0,1351,406,0,0,0,0,0,0,0,180,2.0,8,8,777.7,77777,9,999999999,0,0.0000,0,0,999.000,0.1,99.0
2010,4,24,1,0,?9?9?9?9E0?9?9?9?9*9?9?9?9?9*9?9*9*9?9*_?9?9*9?9*9,23.2,20.6,92,98090,0,1351,405,0,0,0,0,0,0,0,180,2.0,8,8,777.7,77777,9,999999999,8,0.0000,0,0,999.000,8.8,99.0
2010,4,24,2,0,?9?9?9?9E0?9?9?9?9*9?9?9?9?9*9?9*9*9?9*_?9?9*9?9*9,22.9,20.6,85,98090,0,1351,403,0,0,0,0,0,0,0,180,2.0,8,8,777.7,77777,9,999999999,0,0.0000,0,0,999.000,0.2,99.0
2010,4,24,3,0,?9?9?9?9E0?9?9?9?9*9?9?9?9?9*9?9*9*9?9*_?9?9*9?9*9,22.7,20.5,86,98090,0,1351,402,0,0,0,0,0,0,0,180,2.0,8,8,777.7,77777,9,999999999,0,0.0000,0,0,999.000,0.0,99.0
2010,4,24,4,0,?9?9?9?9E0?9?9?9?9*9?9?9?9?9*9?9*9*9?9*_?9?9*9?9*9,22.5,20.5,83,98090,0,1350,401,0,0,0,0,0,0,0,180,2.0,8,8,777.7,77777,9,999999999,0,0.0000,0,0,999.000,0.0,99.0
2010,4,24,5,0,?9?9?9?9E0?9?9?9?9*9?9?9?9?9*9?9*9*9?9*_?9?9*9?9*9,22.3,20.5,84,98090,0,1350,400,0,0,0,0,0,0,0,180,2.0,8,8,777.7,77777,9,999999999,0,0.0000,0,0,999.000,0.0,99.0
2010,4,24,6,0,?9?9?9?9E0?9?9?9?9*9?9?9?9?9*9?9*9*9?9*_?9?9*9?9*9,22.1,20.5,88,98090,0,1350,399,0,0,0,0,0,0,0,180,2.0,8,8,777.7,77777,9,999999999,0,0.0000,0,0,999.000,0.1,99.0
2010,4,24,7,0,?9?9?9?9E0?9?9?9?9*9?9?9?9?9*9?9*9*9?9*_?9?9*9?9*9,21.9,20.5,85,98090,133,1350,398,0,0,0,0,0,0,0,180,2.0,8,8,777.7,77777,9,999999999,0,0.0000,0,0,999.000,0.0,99.0
2010,4,24,8,0,?9?9?9?9E0?9?9?9?9*9?9?9?9?9*9?9*9*9?9*_?9?9*9?9*9,21.8,20.4,86,98090,433,1350,397,80,0,80,9646,0,8842,80,180,2.0,8,8,777.7,77777,9,999999999,0,0.0000,0,0,999.000,0.0,99.0
2010,4,24,9,0,?9?9?9?9E0?9?9?9?9*9?9?9?9?9*9?9*9*9?9*_?9?9*9?9*9,23.9,20.7,78,98090,699,1350,409,218,40,198,26212,3779,21764,122,180,2.0,8,8,777.7,77777,9,999999999,0,0.0000,0,0,999.000,0.0,99.0
2010,4,24,10,0,?9?9?9?9E0?9?9?9?9*9?9?9?9?9*9?9*9*9?9*_?9?9*9?9*9,24.8,20.8,79,98090,910,1350,414,340,55,303,40847,5237,33358,143,180,2.0,8,8,777.7,77777,9,999999999,0,0.0000,0,0,999.000,0.0,99.0
2010,4,24,11,0,?9?9?9?9E0?9?9?9?9*9?9?9?9?9*9?9*9*9?9*_?9?9*9?9*9,25.5,20.9,73,98090,1051,1350,411,432,67,379,51806,6403,41716,155,180,2.0,7,7,777.7,77777,9,999999999,0,0.0000,0,0,999.000,0.0,99.0
2010,4,24,12,0,?9?9?9?9E0?9?9?9?9*9?9?9?9?9*9?9*9*9?9*_?9?9*9?9*9,26.1,20.9,72,98090,1114,1350,415,485,81,418,58180,7719,45959,161,180,2.0,7,7,777.7,77777,9,999999999,0,0.0000,0,0,999.000,0.0,99.0
2010,4,24,13,0,?9?9?9?9E0?9?9?9?9*9?9?9?9?9*9?9*9*9?9*_?9?9*9?9*9,26.6,21.0,71,98090,1093,1350,417,496,97,417,59483,9259,45847,164,180,2.2,7,7,777.7,77777,9,999999999,0,0.0000,0,0,999.000,0.0,99.0
2010,4,24,14,0,?9?9?9?9E0?9?9?9?9*9?9?9?9?9*9?9*9*9?9*_?9?9*9?9*9,26.8,21.0,70,98090,990,1350,419,463,99,391,55616,9370,43026,170,180,3.8,7,7,777.7,77777,9,999999999,0,0.0000,0,0,999.000,0.0,99.0
2010,4,24,15,0,?9?9?9?9E0?9?9?9?9*9?9?9?9?9*9?9*9*9?9*_?9?9*9?9*9,26.9,21.0,73,98090,813,1350,419,391,160,294,46873,15233,32356,156,180,4.0,7,7,777.7,77777,9,999999999,0,0.0000,0,0,999.000,0.0,99.0
2010,4,24,16,0,?9?9?9?9E0?9?9?9?9*9?9?9?9?9*9?9*9*9?9*_?9?9*9?9*9,26.6,21.0,74,98090,572,1350,424,283,274,167,33936,26051,18336,125,180,3.8,8,8,777.7,77777,9,999999999,0,0.0000,0,0,999.000,0.3,99.0
2010,4,24,17,0,?9?9?9?9E0?9?9?9?9*9?9?9?9?9*9?9*9*9?9*_?9?9*9?9*9,26.2,20.9,72,98090,286,1350,422,150,381,70,18012,36226,7669,105,180,2.9,8,8,777.7,77777,9,999999999,0,0.0000,0,0,999.000,0.0,99.0
2010,4,24,18,0,?9?9?9?9E0?9?9?9?9*9?9?9?9?9*9?9*9*9?9*_?9?9*9?9*9,25.5,20.9,74,98090,0,1350,418,20,0,0,2401,0,0,0,180,2.5,8,8,777.7,77777,9,999999999,0,0.0000,0,0,999.000,0.0,99.0
2010,4,24,19,0,?9?9?9?9E0?9?9?9?9*9?9?9?9?9*9?9*9*9?9*_?9?9*9?9*9,25.0,20.8,78,98090,0,1350,415,0,0,0,0,0,0,0,180,2.0,8,8,777.7,77777,9,999999999,0,0.0000,0,0,999.000,0.5,99.0
2010,4,24,20,0,?9?9?9?9E0?9?9?9?9*9?9?9?9?9*9?9*9*9?9*_?9?9*9?9*9,24.6,20.8,80,98090,0,1350,413,0,0,0,0,0,0,0,180,2.0,8,8,777.7,77777,9,999999999,0,0.0000,0,0,999.000,0.0,99.0
2010,4,24,21,0,?9?9?9?9E0?9?9?9?9*9?9?9?9?9*9?9*9*9?9*_?9?9*9?9*9,24.2,20.7,78,98090,0,1350,410,0,0,0,0,0,0,0,180,2.0,8,8,777.7,77777,9,999999999,0,0.0000,0,0,999.000,0.0,99.0
2010,4,24,22,0,?9?9?9?9E0?9?9?9?9*9?9?9?9?9*9?9*9*9?9*_?9?9*9?9*9,23.7,20.7,79,98090,0,1350,408,0,0,0,0,0,0,0,180,2.0,8,8,777.7,77777,9,999999999,0,0.0000,0,0,999.000,0.0,99.0
2010,4,24,23,0,?9?9?9?9E0?9?9?9?9*9?9?9?9?9*9?9*9*9?9*_?9?9*9?9*9,23.3,20.6,80,98090,0,1350,405,0,0,0,0,0,0,0,180,2.0,8,8,777.7,77777,9,999999999,0,0.0000,0,0,999.000,0.0,99.0
2010,4,24,24,0,?9?9?9?9E0?9?9?9?9*9?9?9?9?9*9?9*9*9?9*_?9?9*9?9*9,22.8,20.6,88,98090,0,1350,403,0,0,0,0,0,0,0,180,1.4,8,8,777.7,77777,9,999999999,0,0.0000,0,0,999.000,0.6,99.0
2010,4,25,1,0,?9?9?9?9E0?9?9?9?9*9?9?9?9?9*9?9*9*9?9*_?9?9*9?9*9,22.6,20.6,88,98090,0,1350,402,0,0,0,0,0,0,0,180,1.4,8,8,777.7,77777,9,999999999,0,0.0000,0,0,999.000,0.4,99.0
2010,4,25,2,0,?9?9?9?9E0?9?9?9?9*9?9?9?9?9*9?9*9*9?9*_?9?9*9?9*9,22.4,20.5,89,98090,0,1350,400,0,0,0,0,0,0,0,180,1.4,8,8,777.7,77777,9,999999999,0,0.0000,0,0,999.000,0.1,99.0
2010,4,25,3,0,?9?9?9?9E0?9?9?9?9*9?9?9?9?9*9?9*9*9?9*_?9?9*9?9*9,22.2,20.5,90,98090,0,1350,399,0,0,0,0,0,0,0,180,1.4,8,8,777.7,77777,9,999999999,0,0.0000,0,0,999.000,0.0,99.0
2010,4,25,4,0,?9?9?9?9E0?9?9?9?9*9?9?9?9?9*9?9*9*9?9*_?9?9*9?9*9,22.0,20.4,87,98090,0,1349,398,0,0,0,0,0,0,0,180,1.4,8,8,777.7,77777,9,999999999,0,0.0000,0,0,999.000,0.0,99.0
2010,4,25,5,0,?9?9?9?9E0?9?9?9?9*9?9?9?9?9*9?9*9*9?9*_?9?9*9?9*9,21.7,20.4,87,98090,0,1349,397,0,0,0,0,0,0,0,180,1.4,8,8,777.7,77777,9,999999999,0,0.0000,0,0,999.000,0.0,99.0
2010,4,25,6,0,?9?9?9?9E0?9?9?9?9*9?9?9?9?9*9?9*9*9?9*_?9?9*9?9*9,21.6,20.4,92,98090,0,1349,396,0,0,0,0,0,0,0,180,1.4,8,8,777.7,77777,9,999999999,0,0.0000,0,0,999.000,0.1,99.0
2010,4,25,7,0,?9?9?9?9E0?9?9?9?9*9?9?9?9?9*9?9*9*9?9*_?9?9*9?9*9,21.4,20.3,92,98090,130,1349,395,0,0,0,0,0,0,0,180,1.4,8,8,777.7,77777,9,999999999,0,0.0000,0,0,999.000,0.2,99.0
2010,4,25,8,0,?9?9?9?9E0?9?9?9?9*9?9?9?9?9*9?9*9*9?9*_?9?9*9?9*9,21.3,20.3,93,98090,430,1349,394,90,0,90,10757,0,9860,90,180,1.4,8,8,777.7,77777,9,999999999,0,0.0000,0,0,999.000,0.5,99.0
2010,4,25,9,0,?9?9?9?9E0?9?9?9?9*9?9?9?9?9*9?9*9*9?9*_?9?9*9?9*9,23.9,20.8,84,98090,695,1349,403,245,71,208,29390,6771,22903,129,180,1.4,7,7,777.7,77777,9,999999999,0,0.0000,0,0,999.000,0.1,99.0
2010,4,25,10,0,?9?9?9?9E0?9?9?9?9*9?9?9?9?9*9?9*9*9?9*_?9?9*9?9*9,25.0,21.1,80,98090,906,1349,409,382,87,323,45853,8310,35575,153,180,2.0,7,7,777.7,77777,9,999999999,0,0.0000,0,0,999.000,0.0,99.0
2010,4,25,11,0,?9?9?9?9E0?9?9?9?9*9?9?9?9?9*9?9*9*9?9*_?9?9*9?9*9,26.0,21.3,74,98090,1047,1349,415,485,110,400,58178,10439,43955,164,180,2.5,7,7,777.7,77777,9,999999999,0,0.0000,0,0,999.000,0.0,99.0
2010,4,25,12,0,?9?9?9?9E0?9?9?9?9*9?9?9?9?9*9?9*9*9?9*_?9?9*9?9*9,26.8,21.4,71,98090,1109,1349,419,544,132,436,65338,12551,47951,169,180,3.5,7,7,777.7,77777,9,999999999,0,0.0000,0,0,999.000,0.0,99.0
2010,4,25,13,0,?9?9?9?9E0?9?9?9?9*9?9?9?9?9*9?9*9*9?9*_?9?9*9?9*9,27.3,21.5,74,98090,1088,1349,422,557,158,429,66786,14994,47225,170,180,3.9,7,7,777.7,77777,9,999999999,0,0.0000,0,0,999.000,0.0,99.0
2010,4,25,14,0,?9?9?9?9E0?9?9?9?9*9?9?9?9?9*9?9*9*9?9*_?9?9*9?9*9,27.6,21.6,73,98090,985,1349,424,520,158,405,62417,15032,44512,176,180,4.1,7,7,777.7,77777,9,999999999,0,0.0000,0,0,999.000,0.0,99.0
2010,4,25,15,0,?9?9?9?9E0?9?9?9?9*9?9?9?9?9*9?9*9*9?9*_?9?9*9?9*9,27.7,21.6,69,98090,808,1349,425,438,323,245,52558,30681,26925,130,180,4.3,7,7,777.7,77777,9,999999999,0,0.0000,0,0,999.000,0.0,99.0
2010,4,25,16,0,?9?9?9?9E0?9?9?9?9*9?9?9?9?9*9?9*9*9?9*_?9?9*9?9*9,27.5,21.6,74,98090,568,1349,423,317,417,141,37984,39627,15541,107,180,4.4,7,7,777.7,77777,9,999999999,0,0.0000,0,0,999.000,0.1,99.0
2010,4,25,17,0,?9?9?9?9E0?9?9?9?9*9?9?9?9?9*9?9*9*9?9*_?9?9*9?9*9,26.8,21.4,75,98090,282,1349,426,167,372,90,20056,35387,9873,138,180,4.1,8,8,777.7,77777,9,999999999,0,0.0000,0,0,999.000,0.2,99.0
2010,4,25,18,0,?9?9?9?9E0?9?9?9?9*9?9?9?9?9*9?9*9*9?9*_?9?9*9?9*9,26.0,21.3,78,98090,0,1349,421,21,0,0,2558,0,0,0,180,3.7,8,8,777.7,77777,9,999999999,0,0.0000,0,0,999.000,0.3,99.0
2010,4,25,19,0,?9?9?9?9E0?9?9?9?9*9?9?9?9?9*9?9*9*9?9*_?9?9*9?9*9,25.5,21.2,79,98090,0,1349,418,0,0,0,0,0,0,0,180,2.4,8,8,777.7,77777,9,999999999,0,0.0000,0,0,999.000,0.8,99.0
2010,4,25,20,0,?9?9?9?9E0?9?9?9?9*9?9?9?9?9*9?9*9*9?9*_?9?9*9?9*9,25.0,21.1,81,98090,0,1349,415,0,0,0,0,0,0,0,180,2.3,8,8,777.7,77777,9,999999999,0,0.0000,0,0,999.000,0.2,99.0
2010,4,25,21,0,?9?9?9?9E0?9?9?9?9*9?9?9?9?9*9?9*9*9?9*_?9?9*9?9*9,24.5,21.0,86,98090,0,1349,412,0,0,0,0,0,0,0,180,1.8,8,8,777.7,77777,9,999999999,1,0.0000,0,0,999.000,2.0,99.0
2010,4,25,22,0,?9?9?9?9E0?9?9?9?9*9?9?9?9?9*9?9*9*9?9*_?9?9*9?9*9,24.0,20.9,88,98090,0,1349,409,0,0,0,0,0,0,0,180,1.4,8,8,777.7,77777,9,999999999,1,0.0000,0,0,999.000,1.2,99.0
2010,4,25,23,0,?9?9?9?9E0?9?9?9?9*9?9?9?9?9*9?9*9*9?9*_?9?9*9?9*9,23.5,20.8,94,98090,0,1349,406,0,0,0,0,0,0,0,180,1.4,8,8,777.7,77777,9,999999999,22,0.0000,0,0,999.000,22.2,99.0
2010,4,25,24,0,?9?9?9?9E0?9?9?9?9*9?9?9?9?9*9?9*9*9?9*_?9?9*9?9*9,23.0,21.2,92,98090,0,1349,404,0,0,0,0,0,0,0,180,1.4,8,8,777.7,77777,9,999999999,0,0.0000,0,0,999.000,0.4,99.0
2010,4,26,1,0,?9?9?9?9E0?9?9?9?9*9?9?9?9?9*9?9*9*9?9*_?9?9*9?9*9,22.7,21.2,93,98090,0,1349,403,0,0,0,0,0,0,0,180,1.4,8,8,777.7,77777,9,999999999,0,0.0000,0,0,999.000,0.2,99.0
2010,4,26,2,0,?9?9?9?9E0?9?9?9?9*9?9?9?9?9*9?9*9*9?9*_?9?9*9?9*9,22.5,21.2,94,98090,0,1349,401,0,0,0,0,0,0,0,180,1.4,8,8,777.7,77777,9,999999999,0,0.0000,0,0,999.000,0.0,99.0
2010,4,26,3,0,?9?9?9?9E0?9?9?9?9*9?9?9?9?9*9?9*9*9?9*_?9?9*9?9*9,22.2,21.1,91,98090,0,1349,400,0,0,0,0,0,0,0,180,1.4,8,8,777.7,77777,9,999999999,0,0.0000,0,0,999.000,0.0,99.0
2010,4,26,4,0,?9?9?9?9E0?9?9?9?9*9?9?9?9?9*9?9*9*9?9*_?9?9*9?9*9,22.0,21.1,92,98090,0,1349,399,0,0,0,0,0,0,0,180,1.4,8,8,777.7,77777,9,999999999,0,0.0000,0,0,999.000,0.0,99.0
2010,4,26,5,0,?9?9?9?9E0?9?9?9?9*9?9?9?9?9*9?9*9*9?9*_?9?9*9?9*9,21.7,21.1,93,98090,0,1349,397,0,0,0,0,0,0,0,180,1.4,8,8,777.7,77777,9,999999999,0,0.0000,0,0,999.000,0.0,99.0
2010,4,26,6,0,?9?9?9?9E0?9?9?9?9*9?9?9?9?9*9?9*9*9?9*_?9?9*9?9*9,21.5,21.0,98,98090,0,1349,396,0,0,0,0,0,0,0,180,1.4,8,8,777.7,77777,9,999999999,0,0.0000,0,0,999.000,0.1,99.0
2010,4,26,7,0,?9?9?9?9E0?9?9?9?9*9?9?9?9?9*9?9*9*9?9*_?9?9*9?9*9,21.3,21.0,98,98090,128,1349,395,0,0,0,0,0,0,0,180,1.4,8,8,777.7,77777,9,999999999,0,0.0000,0,0,999.000,0.0,99.0
2010,4,26,8,0,?9?9?9?9E0?9?9?9?9*9?9?9?9?9*9?9*9*9?9*_?9?9*9?9*9,21.2,21.0,95,98090,428,1349,394,62,0,62,7459,0,6838,63,180,1.4,8,8,777.7,77777,9,999999999,0,0.0000,0,0,999.000,0.0,99.0
2010,4,26,9,0,?9?9?9?9E0?9?9?9?9*9?9?9?9?9*9?9*9*9?9*_?9?9*9?9*9,23.1,21.2,91,98090,692,1349,405,171,7,167,20496,682,18383,104,180,1.7,8,8,777.7,77777,9,999999999,0,0.0000,0,0,999.000,0.1,99.0
2010,4,26,10,0,?9?9?9?9E0?9?9?9?9*9?9?9?9?9*9?9*9*9?9*_?9?9*9?9*9,23.9,21.3,92,98090,902,1349,409,267,13,258,32016,1262,28372,123,180,2.6,8,8,777.7,77777,9,999999999,1,0.0000,0,0,999.000,1.1,99.0
2010,4,26,11,0,?9?9?9?9E0?9?9?9?9*9?9?9?9?9*9?9*9*9?9*_?9?9*9?9*9,24.6,21.4,81,98090,1042,1349,413,339,27,318,40636,2567,34953,131,180,3.3,8,8,777.7,77777,9,999999999,0,0.0000,0,0,999.000,0.0,99.0
2010,4,26,12,0,?9?9?9?9E0?9?9?9?9*9?9?9?9?9*9?9*9*9?9*_?9?9*9?9*9,25.1,21.5,79,98090,1104,1349,417,380,33,354,45637,3105,38891,137,180,3.6,8,8,777.7,77777,9,999999999,0,0.0000,0,0,999.000,0.0,99.0
2010,4,26,13,0,?9?9?9?9E0?9?9?9?9*9?9?9?9?9*9?9*9*9?9*_?9?9*9?9*9,25.5,21.5,78,98090,1083,1349,419,389,39,358,46640,3684,39329,142,180,4.0,8,8,777.7,77777,9,999999999,0,0.0000,0,0,999.000,0.0,99.0
2010,4,26,14,0,?9?9?9?9E0?9?9?9?9*9?9?9?9?9*9?9*9*9?9*_?9?9*9?9*9,25.8,21.6,77,98090,980,1349,420,363,32,340,43571,3074,37354,149,180,4.5,8,8,777.7,77777,9,999999999,0,0.0000,0,0,999.000,0.0,99.0
2010,4,26,15,0,?9?9?9?9E0?9?9?9?9*9?9?9?9?9*9?9*9*9?9*_?9?9*9?9*9,25.8,21.6,77,98090,803,1349,420,305,50,276,36658,4746,30334,148,180,4.8,8,8,777.7,77777,9,999999999,0,0.0000,0,0,999.000,0.0,99.0
2010,4,26,16,0,?9?9?9?9E0?9?9?9?9*9?9?9?9?9*9?9*9*9?9*_?9?9*9?9*9,25.6,21.5,82,98090,563,1349,419,220,106,176,26444,10082,19374,134,180,4.2,8,8,777.7,77777,9,999999999,0,0.0000,0,0,999.000,0.0,99.0
2010,4,26,17,0,?9?9?9?9E0?9?9?9?9*9?9?9?9?9*9?9*9*9?9*_?9?9*9?9*9,25.2,21.5,83,98090,278,1349,417,116,241,66,13890,22862,7313,103,180,3.8,8,8,777.7,77777,9,999999999,0,0.0000,0,0,999.000,0.6,99.0
2010,4,26,18,0,?9?9?9?9E0?9?9?9?9*9?9?9?9?9*9?9*9*9?9*_?9?9*9?9*9,24.5,21.4,94,98090,0,1349,413,14,0,0,1693,0,0,0,180,2.7,8,8,777.7,77777,9,999999999,14,0.0000,0,0,999.000,14.9,99.0
2010,4,26,19,0,?9?9?9?9E0?9?9?9?9*9?9?9?9?9*9?9*9*9?9*_?9?9*9?9*9,24.3,21.4,87,98090,0,1349,412,0,0,0,0,0,0,0,180,2.3,8,8,777.7,77777,9,999999999,0,0.0000,0,0,999.000,0.2,99.0
2010,4,26,20,0,?9?9?9?9E0?9?9?9?9*9?9?9?9?9*9?9*9*9?9*_?9?9*9?9*9,24.0,21.4,88,98090,0,1349,410,0,0,0,0,0,0,0,180,1.5,8,8,777.7,77777,9,999999999,0,0.0000,0,0,999.000,0.1,99.0
2010,4,26,21,0,?9?9?9?9E0?9?9?9?9*9?9?9?9?9*9?9*9*9?9*_?9?9*9?9*9,23.7,21.3,84,98090,0,1349,409,0,0,0,0,0,0,0,180,1.4,8,8,777.7,77777,9,999999999,0,0.0000,0,0,999.000,0.0,99.0
2010,4,26,22,0,?9?9?9?9E0?9?9?9?9*9?9?9?9?9*9?9*9*9?9*_?9?9*9?9*9,23.5,21.3,90,98090,0,1349,407,0,0,0,0,0,0,0,180,1.4,8,8,777.7,77777,9,999999999,0,0.0000,0,0,999.000,0.0,99.0
2010,4,26,23,0,?9?9?9?9E0?9?9?9?9*9?9?9?9?9*9?9*9*9?9*_?9?9*9?9*9,23.2,21.3,91,98090,0,1349,405,0,0,0,0,0,0,0,180,1.4,8,8,777.7,77777,9,999999999,0,0.0000,0,0,999.000,0.3,99.0
2010,4,26,24,0,?9?9?9?9E0?9?9?9?9*9?9?9?9?9*9?9*9*9?9*_?9?9*9?9*9,22.9,21.1,86,98090,0,1349,404,0,0,0,0,0,0,0,180,2.3,8,8,777.7,77777,9,999999999,0,0.0000,0,0,999.000,0.3,99.0
2010,4,27,1,0,?9?9?9?9E0?9?9?9?9*9?9?9?9?9*9?9*9*9?9*_?9?9*9?9*9,22.8,21.1,87,98090,0,1349,403,0,0,0,0,0,0,0,180,2.3,8,8,777.7,77777,9,999999999,0,0.0000,0,0,999.000,0.8,99.0
2010,4,27,2,0,?9?9?9?9E0?9?9?9?9*9?9?9?9?9*9?9*9*9?9*_?9?9*9?9*9,22.6,21.1,94,98090,0,1349,402,0,0,0,0,0,0,0,180,2.3,8,8,777.7,77777,9,999999999,28,0.0000,0,0,999.000,28.6,99.0
2010,4,27,3,0,?9?9?9?9E0?9?9?9?9*9?9?9?9?9*9?9*9*9?9*_?9?9*9?9*9,22.5,21.1,88,98090,0,1349,402,0,0,0,0,0,0,0,180,2.3,8,8,777.7,77777,9,999999999,0,0.0000,0,0,999.000,0.6,99.0
2010,4,27,4,0,?9?9?9?9E0?9?9?9?9*9?9?9?9?9*9?9*9*9?9*_?9?9*9?9*9,22.4,21.0,91,98090,0,1348,401,0,0,0,0,0,0,0,180,2.3,8,8,777.7,77777,9,999999999,2,0.0000,0,0,999.000,2.2,99.0
2010,4,27,5,0,?9?9?9?9E0?9?9?9?9*9?9?9?9?9*9?9*9*9?9*_?9?9*9?9*9,22.2,21.0,92,98090,0,1348,400,0,0,0,0,0,0,0,180,2.3,8,8,777.7,77777,9,999999999,1,0.0000,0,0,999.000,1.2,99.0
2010,4,27,6,0,?9?9?9?9E0?9?9?9?9*9?9?9?9?9*9?9*9*9?9*_?9?9*9?9*9,22.1,21.0,89,98090,0,1348,399,0,0,0,0,0,0,0,180,2.3,8,8,777.7,77777,9,999999999,0,0.0000,0,0,999.000,0.4,99.0
2010,4,27,7,0,?9?9?9?9E0?9?9?9?9*9?9?9?9?9*9?9*9*9?9*_?9?9*9?9*9,22.0,21.0,89,98090,126,1348,399,0,0,0,0,0,0,0,180,2.3,8,8,777.7,77777,9,999999999,0,0.0000,0,0,999.000,0.1,99.0
2010,4,27,8,0,?9?9?9?9E0?9?9?9?9*9?9?9?9?9*9?9*9*9?9*_?9?9*9?9*9,21.9,21.0,89,98090,425,1348,398,69,0,69,8298,0,7607,70,180,2.3,8,8,777.7,77777,9,999999999,0,0.0000,0,0,999.000,0.2,99.0
2010,4,27,9,0,?9?9?9?9E0?9?9?9?9*9?9?9?9?9*9?9*9*9?9*_?9?9*9?9*9,24.4,21.4,82,98090,689,1348,412,191,20,181,22932,1918,19887,113,180,2.3,8,8,777.7,77777,9,999999999,0,0.0000,0,0,999.000,0.1,99.0
2010,4,27,10,0,?9?9?9?9E0?9?9?9?9*9?9?9?9?9*9?9*9*9?9*_?9?9*9?9*9,25.5,21.6,80,98090,898,1348,419,299,31,278,35866,2989,30572,133,180,2.3,8,8,777.7,77777,9,999999999,0,0.0000,0,0,999.000,0.2,99.0
2010,4,27,11,0,?9?9?9?9E0?9?9?9?9*9?9?9?9?9*9?9*9*9?9*_?9?9*9?9*9,25.5,21.6,80,98090,1038,1348,419,202,10,194,24205,945,21345,80,180,2.3,8,8,777.7,77777,9,999999999,0,0.0000,0,0,999.000,0.0,99.0
2010,4,27,12,0,?9?9?9?9E0?9?9?9?9*9?9?9?9?9*9?9*9*9?9*_?9?9*9?9*9,26.4,21.8,77,98090,1099,1348,424,426,63,375,51148,6021,41200,146,180,2.5,8,8,777.7,77777,9,999999999,0,0.0000,0,0,999.000,0.0,99.0
2010,4,27,13,0,?9?9?9?9E0?9?9?9?9*9?9?9?9?9*9?9*9*9?9*_?9?9*9?9*9,26.8,21.9,77,98090,1078,1348,426,352,33,326,42258,3145,35825,130,180,2.3,8,8,777.7,77777,9,999999999,0,0.0000,0,0,999.000,0.1,99.0
2010,4,27,14,0,?9?9?9?9E0?9?9?9?9*9?9?9?9?9*9?9*9*9?9*_?9?9*9?9*9,26.5,21.8,77,98090,975,1348,425,154,0,154,18526,44,16945,68,180,2.9,8,8,777.7,77777,9,999999999,0,0.0000,0,0,999.000,0.0,99.0
2010,4,27,15,0,?9?9?9?9E0?9?9?9?9*9?9?9?9?9*9?9*9*9?9*_?9?9*9?9*9,27.1,22.0,73,98090,798,1348,417,487,447,223,58469,42489,24493,120,180,2.6,6,6,777.7,77777,9,999999999,0,0.0000,0,0,999.000,0.0,99.0
2010,4,27,16,0,?9?9?9?9E0?9?9?9?9*9?9?9?9?9*9?9*9*9?9*_?9?9*9?9*9,27.3,22.0,72,98090,558,1348,414,376,575,138,45132,54672,15181,106,180,2.3,5,5,777.7,77777,9,999999999,0,0.0000,0,0,999.000,0.0,99.0
2010,4,27,17,0,?9?9?9?9E0?9?9?9?9*9?9?9?9?9*9?9*9*9?9*_?9?9*9?9*9,27.2,22.0,72,98090,274,1348,404,268,344,199,32213,32647,21902,314,180,2.3,2,2,777.7,77777,9,999999999,0,0.0000,0,0,999.000,0.0,99.0
2010,4,27,18,0,?9?9?9?9E0?9?9?9?9*9?9?9?9?9*9?9*9*9?9*_?9?9*9?9*9,26.7,21.9,74,98090,0,1348,388,93,0,0,11156,0,0,0,180,2.3,0,0,777.7,77777,9,999999999,0,0.0000,0,0,999.000,0.0,99.0
2010,4,27,19,0,?9?9?9?9E0?9?9?9?9*9?9?9?9?9*9?9*9*9?9*_?9?9*9?9*9,26.2,21.8,75,98090,0,1348,392,0,0,0,0,0,0,0,180,2.3,1,1,777.7,77777,9,999999999,0,0.0000,0,0,999.000,0.0,99.0
2010,4,27,20,0,?9?9?9?9E0?9?9?9?9*9?9?9?9?9*9?9*9*9?9*_?9?9*9?9*9,25.6,21.7,76,98090,0,1348,389,0,0,0,0,0,0,0,180,2.3,1,1,777.7,77777,9,999999999,0,0.0000,0,0,999.000,0.0,99.0
2010,4,27,21,0,?9?9?9?9E0?9?9?9?9*9?9?9?9?9*9?9*9*9?9*_?9?9*9?9*9,25.1,21.6,77,98090,0,1348,392,0,0,0,0,0,0,0,180,2.3,2,2,777.7,77777,9,999999999,0,0.0000,0,0,999.000,0.0,99.0
2010,4,27,22,0,?9?9?9?9E0?9?9?9?9*9?9?9?9?9*9?9*9*9?9*_?9?9*9?9*9,24.6,21.5,79,98090,0,1348,389,0,0,0,0,0,0,0,180,2.3,2,2,777.7,77777,9,999999999,0,0.0000,0,0,999.000,0.0,99.0
2010,4,27,23,0,?9?9?9?9E0?9?9?9?9*9?9?9?9?9*9?9*9*9?9*_?9?9*9?9*9,24.1,21.4,80,98090,0,1348,390,0,0,0,0,0,0,0,180,2.3,3,3,777.7,77777,9,999999999,0,0.0000,0,0,999.000,0.0,99.0
2010,4,27,24,0,?9?9?9?9E0?9?9?9?9*9?9?9?9?9*9?9*9*9?9*_?9?9*9?9*9,23.5,19.1,76,98090,0,1348,384,0,0,0,0,0,0,0,180,2.3,3,3,777.7,77777,9,999999999,0,0.0000,0,0,999.000,0.0,99.0
2010,4,28,1,0,?9?9?9?9E0?9?9?9?9*9?9?9?9?9*9?9*9*9?9*_?9?9*9?9*9,23.3,19.1,77,98090,0,1348,386,0,0,0,0,0,0,0,180,2.3,4,4,777.7,77777,9,999999999,0,0.0000,0,0,999.000,0.0,99.0
2010,4,28,2,0,?9?9?9?9E0?9?9?9?9*9?9?9?9?9*9?9*9*9?9*_?9?9*9?9*9,23.0,19.2,78,98090,0,1348,388,0,0,0,0,0,0,0,180,2.3,5,5,777.7,77777,9,999999999,0,0.0000,0,0,999.000,0.0,99.0
2010,4,28,3,0,?9?9?9?9E0?9?9?9?9*9?9?9?9?9*9?9*9*9?9*_?9?9*9?9*9,22.8,19.2,80,98090,0,1348,386,0,0,0,0,0,0,0,180,2.3,5,5,777.7,77777,9,999999999,0,0.0000,0,0,999.000,0.0,99.0
2010,4,28,4,0,?9?9?9?9E0?9?9?9?9*9?9?9?9?9*9?9*9*9?9*_?9?9*9?9*9,22.5,19.2,81,98090,0,1347,388,0,0,0,0,0,0,0,180,2.3,6,6,777.7,77777,9,999999999,0,0.0000,0,0,999.000,0.0,99.0
2010,4,28,5,0,?9?9?9?9E0?9?9?9?9*9?9?9?9?9*9?9*9*9?9*_?9?9*9?9*9,22.2,19.3,83,98090,0,1347,387,0,0,0,0,0,0,0,180,2.3,6,6,777.7,77777,9,999999999,0,0.0000,0,0,999.000,0.0,99.0
2010,4,28,6,0,?9?9?9?9E0?9?9?9?9*9?9?9?9?9*9?9*9*9?9*_?9?9*9?9*9,22.0,19.3,84,98090,0,1347,391,0,0,0,0,0,0,0,180,2.3,7,7,777.7,77777,9,999999999,0,0.0000,0,0,999.000,0.0,99.0
2010,4,28,7,0,?9?9?9?9E0?9?9?9?9*9?9?9?9?9*9?9*9*9?9*_?9?9*9?9*9,21.8,19.4,85,98090,124,1347,390,0,0,0,0,0,0,0,180,2.3,7,7,777.7,77777,9,999999999,0,0.0000,0,0,999.000,0.0,99.0
2010,4,28,8,0,?9?9?9?9E0?9?9?9?9*9?9?9?9?9*9?9*9*9?9*_?9?9*9?9*9,21.7,19.4,86,98090,422,1347,395,92,0,92,11060,0,10139,94,180,2.3,8,8,777.7,77777,9,999999999,0,0.0000,0,0,999.000,0.0,99.0
2010,4,28,9,0,?9?9?9?9E0?9?9?9?9*9?9?9?9?9*9?9*9*9?9*_?9?9*9?9*9,23.5,19.1,76,98090,685,1347,404,183,14,176,21982,1336,19364,110,180,2.3,8,8,777.7,77777,9,999999999,0,0.0000,0,0,999.000,0.0,99.0
2010,4,28,10,0,?9?9?9?9E0?9?9?9?9*9?9?9?9?9*9?9*9*9?9*_?9?9*9?9*9,24.3,19.0,72,98090,894,1347,409,326,46,295,39060,4386,32437,142,180,2.3,8,8,777.7,77777,9,999999999,0,0.0000,0,0,999.000,0.0,99.0
2010,4,28,11,0,?9?9?9?9E0?9?9?9?9*9?9?9?9?9*9?9*9*9?9*_?9?9*9?9*9,25.5,18.7,66,98090,1033,1347,400,577,296,350,69235,28091,38522,145,180,2.3,5,5,777.7,77777,9,999999999,0,0.0000,0,0,999.000,0.0,99.0
2010,4,28,12,0,?9?9?9?9E0?9?9?9?9*9?9?9?9?9*9?9*9*9?9*_?9?9*9?9*9,26.4,18.6,62,98090,1094,1347,405,635,327,369,76145,31035,40611,145,180,2.3,5,5,777.7,77777,9,999999999,0,0.0000,0,0,999.000,0.0,99.0
2010,4,28,13,0,?9?9?9?9E0?9?9?9?9*9?9?9?9?9*9?9*9*9?9*_?9?9*9?9*9,26.6,18.5,61,98090,1073,1347,421,457,109,370,54800,10335,40706,148,180,2.3,8,8,777.7,77777,9,999999999,0,0.0000,0,0,999.000,0.0,99.0
2010,4,28,14,0,?9?9?9?9E0?9?9?9?9*9?9?9?9?9*9?9*9*9?9*_?9?9*9?9*9,26.8,18.5,60,98090,970,1347,415,473,185,340,56762,17597,37366,150,180,2.3,7,7,777.7,77777,9,999999999,0,0.0000,0,0,999.000,0.0,99.0
2010,4,28,15,0,?9?9?9?9E0?9?9?9?9*9?9?9?9?9*9?9*9*9?9*_?9?9*9?9*9,27.0,18.5,59,98090,793,1347,405,550,688,145,65954,65358,15939,78,180,2.8,4,4,777.7,77777,9,999999999,0,0.0000,0,0,999.000,0.0,99.0
2010,4,28,16,0,?9?9?9?9E0?9?9?9?9*9?9?9?9?9*9?9*9*9?9*_?9?9*9?9*9,27.1,18.5,59,98090,554,1347,386,486,730,186,58289,69303,20484,144,180,2.3,0,0,777.7,77777,9,999999999,0,0.0000,0,0,999.000,0.0,99.0
2010,4,28,17,0,?9?9?9?9E0?9?9?9?9*9?9?9?9?9*9?9*9*9?9*_?9?9*9?9*9,26.7,18.5,60,98090,270,1347,407,236,599,117,28313,56920,12849,187,180,2.3,5,5,777.7,77777,9,999999999,0,0.0000,0,0,999.000,0.0,99.0
2010,4,28,18,0,?9?9?9?9E0?9?9?9?9*9?9?9?9?9*9?9*9*9?9*_?9?9*9?9*9,26.0,18.6,63,98090,0,1347,411,47,0,0,5693,0,0,0,180,2.3,7,7,777.7,77777,9,999999999,0,0.0000,0,0,999.000,0.0,99.0
2010,4,28,19,0,?9?9?9?9E0?9?9?9?9*9?9?9?9?9*9?9*9*9?9*_?9?9*9?9*9,25.5,18.7,66,98090,0,1347,408,0,0,0,0,0,0,0,180,2.3,7,7,777.7,77777,9,999999999,0,0.0000,0,0,999.000,0.0,99.0
2010,4,28,20,0,?9?9?9?9E0?9?9?9?9*9?9?9?9?9*9?9*9*9?9*_?9?9*9?9*9,24.9,18.8,68,98090,0,1347,406,0,0,0,0,0,0,0,180,2.3,7,7,777.7,77777,9,999999999,0,0.0000,0,0,999.000,0.0,99.0
2010,4,28,21,0,?9?9?9?9E0?9?9?9?9*9?9?9?9?9*9?9*9*9?9*_?9?9*9?9*9,24.4,18.9,71,98090,0,1347,403,0,0,0,0,0,0,0,180,2.3,7,7,777.7,77777,9,999999999,0,0.0000,0,0,999.000,0.0,99.0
2010,4,28,22,0,?9?9?9?9E0?9?9?9?9*9?9?9?9?9*9?9*9*9?9*_?9?9*9?9*9,23.8,19.0,74,98090,0,1347,400,0,0,0,0,0,0,0,180,2.3,7,7,777.7,77777,9,999999999,0,0.0000,0,0,999.000,0.0,99.0
2010,4,28,23,0,?9?9?9?9E0?9?9?9?9*9?9?9?9?9*9?9*9*9?9*_?9?9*9?9*9,23.3,19.1,77,98090,0,1347,397,0,0,0,0,0,0,0,180,2.3,7,7,777.7,77777,9,999999999,0,0.0000,0,0,999.000,0.0,99.0
2010,4,28,24,0,?9?9?9?9E0?9?9?9?9*9?9?9?9?9*9?9*9*9?9*_?9?9*9?9*9,22.8,17.5,72,98090,0,1347,392,0,0,0,0,0,0,0,180,1.5,7,7,777.7,77777,9,999999999,0,0.0000,0,0,999.000,0.0,99.0
2010,4,29,1,0,?9?9?9?9E0?9?9?9?9*9?9?9?9?9*9?9*9*9?9*_?9?9*9?9*9,22.5,17.5,73,98090,0,1347,391,0,0,0,0,0,0,0,180,1.5,7,7,777.7,77777,9,999999999,0,0.0000,0,0,999.000,0.0,99.0
2010,4,29,2,0,?9?9?9?9E0?9?9?9?9*9?9?9?9?9*9?9*9*9?9*_?9?9*9?9*9,22.2,17.5,74,98090,0,1347,389,0,0,0,0,0,0,0,180,1.5,7,7,777.7,77777,9,999999999,0,0.0000,0,0,999.000,0.0,99.0
2010,4,29,3,0,?9?9?9?9E0?9?9?9?9*9?9?9?9?9*9?9*9*9?9*_?9?9*9?9*9,22.0,17.5,76,98090,0,1347,388,0,0,0,0,0,0,0,180,1.5,7,7,777.7,77777,9,999999999,0,0.0000,0,0,999.000,0.0,99.0
2010,4,29,4,0,?9?9?9?9E0?9?9?9?9*9?9?9?9?9*9?9*9*9?9*_?9?9*9?9*9,21.7,17.6,77,98090,0,1346,387,0,0,0,0,0,0,0,180,1.5,7,7,777.7,77777,9,999999999,0,0.0000,0,0,999.000,0.0,99.0
2010,4,29,5,0,?9?9?9?9E0?9?9?9?9*9?9?9?9?9*9?9*9*9?9*_?9?9*9?9*9,21.4,17.6,78,98090,0,1346,385,0,0,0,0,0,0,0,180,1.5,7,7,777.7,77777,9,999999999,0,0.0000,0,0,999.000,0.0,99.0
2010,4,29,6,0,?9?9?9?9E0?9?9?9?9*9?9?9?9?9*9?9*9*9?9*_?9?9*9?9*9,21.2,17.6,79,98090,0,1346,384,0,0,0,0,0,0,0,180,1.5,7,7,777.7,77777,9,999999999,0,0.0000,0,0,999.000,0.0,99.0
2010,4,29,7,0,?9?9?9?9E0?9?9?9?9*9?9?9?9?9*9?9*9*9?9*_?9?9*9?9*9,21.0,17.6,80,98090,122,1346,383,0,0,0,0,0,0,0,180,1.5,7,7,777.7,77777,9,999999999,0,0.0000,0,0,999.000,0.0,99.0
2010,4,29,8,0,?9?9?9?9E0?9?9?9?9*9?9?9?9?9*9?9*9*9?9*_?9?9*9?9*9,20.8,17.6,81,98090,419,1346,382,116,30,107,13940,2888,11741,109,180,1.5,7,7,777.7,77777,9,999999999,0,0.0000,0,0,999.000,0.0,99.0
2010,4,29,9,0,?9?9?9?9E0?9?9?9?9*9?9?9?9?9*9?9*9*9?9*_?9?9*9?9*9,23.2,17.5,70,98090,682,1346,383,325,205,222,39046,19441,24406,140,180,1.5,4,4,777.7,77777,9,999999999,0,0.0000,0,0,999.000,0.0,99.0
2010,4,29,10,0,?9?9?9?9E0?9?9?9?9*9?9?9?9?9*9?9*9*9?9*_?9?9*9?9*9,24.1,17.5,66,98090,890,1346,386,500,344,273,60048,32690,30044,132,180,1.5,3,3,777.7,77777,9,999999999,0,0.0000,0,0,999.000,0.0,99.0
2010,4,29,11,0,?9?9?9?9E0?9?9?9?9*9?9?9?9?9*9?9*9*9?9*_?9?9*9?9*9,25.0,17.4,62,98090,1029,1346,390,632,441,295,75848,41923,32446,123,180,2.1,3,3,777.7,77777,9,999999999,0,0.0000,0,0,999.000,0.0,99.0
2010,4,29,12,0,?9?9?9?9E0?9?9?9?9*9?9?9?9?9*9?9*9*9?9*_?9?9*9?9*9,25.7,17.4,60,98090,1090,1346,390,734,577,267,88054,54846,29333,105,180,3.3,2,2,777.7,77777,9,999999999,0,0.0000,0,0,999.000,0.0,99.0
2010,4,29,13,0,?9?9?9?9E0?9?9?9?9*9?9?9?9?9*9?9*9*9?9*_?9?9*9?9*9,26.2,17.4,58,98090,1068,1346,380,769,766,162,92304,72734,17833,65,180,4.0,0,0,777.7,77777,9,999999999,0,0.0000,0,0,999.000,0.0,99.0
2010,4,29,14,0,?9?9?9?9E0?9?9?9?9*9?9?9?9?9*9?9*9*9?9*_?9?9*9?9*9,26.5,17.4,57,98090,965,1346,394,697,827,104,83642,78600,11463,46,180,3.9,2,2,777.7,77777,9,999999999,0,0.0000,0,0,999.000,0.0,99.0
2010,4,29,15,0,?9?9?9?9E0?9?9?9?9*9?9?9?9?9*9?9*9*9?9*_?9?9*9?9*9,26.6,17.4,57,98090,788,1346,394,594,752,154,71278,71485,16913,84,180,4.2,2,2,777.7,77777,9,999999999,0,0.0000,0,0,999.000,0.0,99.0
2010,4,29,16,0,?9?9?9?9E0?9?9?9?9*9?9?9?9?9*9?9*9*9?9*_?9?9*9?9*9,26.3,17.4,57,98090,549,1346,397,423,730,125,50700,69312,13771,98,180,4.4,3,3,777.7,77777,9,999999999,0,0.0000,0,0,999.000,0.0,99.0
2010,4,29,17,0,?9?9?9?9E0?9?9?9?9*9?9?9?9?9*9?9*9*9?9*_?9?9*9?9*9,25.8,17.4,59,98090,266,1346,404,211,535,106,25340,50841,11691,173,180,4.1,6,6,777.7,77777,9,999999999,0,0.0000,0,0,999.000,0.0,99.0
2010,4,29,18,0,?9?9?9?9E0?9?9?9?9*9?9?9?9?9*9?9*9*9?9*_?9?9*9?9*9,25.4,17.4,61,98090,0,1346,401,18,0,0,2130,0,0,0,180,4.0,6,6,777.7,77777,9,999999999,0,0.0000,0,0,999.000,0.0,99.0
2010,4,29,19,0,?9?9?9?9E0?9?9?9?9*9?9?9?9?9*9?9*9*9?9*_?9?9*9?9*9,25.0,17.4,62,98090,0,1346,400,0,0,0,0,0,0,0,180,3.2,6,6,777.7,77777,9,999999999,0,0.0000,0,0,999.000,0.0,99.0
2010,4,29,20,0,?9?9?9?9E0?9?9?9?9*9?9?9?9?9*9?9*9*9?9*_?9?9*9?9*9,24.6,17.5,64,98090,0,1346,398,0,0,0,0,0,0,0,180,1.7,6,6,777.7,77777,9,999999999,0,0.0000,0,0,999.000,0.0,99.0
2010,4,29,21,0,?9?9?9?9E0?9?9?9?9*9?9?9?9?9*9?9*9*9?9*_?9?9*9?9*9,24.2,17.5,65,98090,0,1346,395,0,0,0,0,0,0,0,180,1.5,6,6,777.7,77777,9,999999999,0,0.0000,0,0,999.000,0.0,99.0
2010,4,29,22,0,?9?9?9?9E0?9?9?9?9*9?9?9?9?9*9?9*9*9?9*_?9?9*9?9*9,23.9,17.5,67,98090,0,1346,394,0,0,0,0,0,0,0,180,1.5,6,6,777.7,77777,9,999999999,0,0.0000,0,0,999.000,0.0,99.0
2010,4,29,23,0,?9?9?9?9E0?9?9?9?9*9?9?9?9?9*9?9*9*9?9*_?9?9*9?9*9,23.5,17.5,69,98090,0,1346,392,0,0,0,0,0,0,0,180,1.5,6,6,777.7,77777,9,999999999,0,0.0000,0,0,999.000,0.0,99.0
2010,4,29,24,0,?9?9?9?9E0?9?9?9?9*9?9?9?9?9*9?9*9*9?9*_?9?9*9?9*9,23.1,16.1,64,98090,0,1346,388,0,0,0,0,0,0,0,180,1.6,6,6,777.7,77777,9,999999999,0,0.0000,0,0,999.000,0.0,99.0
2010,4,30,1,0,?9?9?9?9E0?9?9?9?9*9?9?9?9?9*9?9*9*9?9*_?9?9*9?9*9,22.9,16.1,65,98090,0,1346,391,0,0,0,0,0,0,0,180,1.6,7,7,777.7,77777,9,999999999,0,0.0000,0,0,999.000,0.0,99.0
2010,4,30,2,0,?9?9?9?9E0?9?9?9?9*9?9?9?9?9*9?9*9*9?9*_?9?9*9?9*9,22.7,16.1,66,98090,0,1346,390,0,0,0,0,0,0,0,180,1.6,7,7,777.7,77777,9,999999999,0,0.0000,0,0,999.000,0.0,99.0
2010,4,30,3,0,?9?9?9?9E0?9?9?9?9*9?9?9?9?9*9?9*9*9?9*_?9?9*9?9*9,22.5,16.1,66,98090,0,1346,389,0,0,0,0,0,0,0,180,1.6,7,7,777.7,77777,9,999999999,0,0.0000,0,0,999.000,0.0,99.0
2010,4,30,4,0,?9?9?9?9E0?9?9?9?9*9?9?9?9?9*9?9*9*9?9*_?9?9*9?9*9,22.4,16.1,67,98090,0,1346,388,0,0,0,0,0,0,0,180,1.6,7,7,777.7,77777,9,999999999,0,0.0000,0,0,999.000,0.0,99.0
2010,4,30,5,0,?9?9?9?9E0?9?9?9?9*9?9?9?9?9*9?9*9*9?9*_?9?9*9?9*9,22.2,16.1,68,98090,0,1346,387,0,0,0,0,0,0,0,180,1.6,7,7,777.7,77777,9,999999999,0,0.0000,0,0,999.000,0.0,99.0
2010,4,30,6,0,?9?9?9?9E0?9?9?9?9*9?9?9?9?9*9?9*9*9?9*_?9?9*9?9*9,22.0,16.1,68,98090,0,1346,387,0,0,0,0,0,0,0,180,1.6,7,7,777.7,77777,9,999999999,0,0.0000,0,0,999.000,0.0,99.0
2010,4,30,7,0,?9?9?9?9E0?9?9?9?9*9?9?9?9?9*9?9*9*9?9*_?9?9*9?9*9,21.9,16.1,69,98090,120,1346,386,0,0,0,0,0,0,0,180,1.6,7,7,777.7,77777,9,999999999,0,0.0000,0,0,999.000,0.0,99.0
2010,4,30,8,0,?9?9?9?9E0?9?9?9?9*9?9?9?9?9*9?9*9*9?9*_?9?9*9?9*9,21.8,16.0,69,98090,416,1346,385,109,6,107,13080,605,11774,110,180,1.6,7,7,777.7,77777,9,999999999,0,0.0000,0,0,999.000,0.0,99.0
2010,4,30,9,0,?9?9?9?9E0?9?9?9?9*9?9?9?9?9*9?9*9*9?9*_?9?9*9?9*9,23.6,16.2,63,98090,678,1346,391,289,125,226,34634,11863,24833,143,180,1.6,6,6,777.7,77777,9,999999999,0,0.0000,0,0,999.000,0.0,99.0
2010,4,30,10,0,?9?9?9?9E0?9?9?9?9*9?9?9?9?9*9?9*9*9?9*_?9?9*9?9*9,24.6,16.3,59,98090,886,1346,386,510,331,292,61181,31422,32149,141,180,1.6,3,3,777.7,77777,9,999999999,0,0.0000,0,0,999.000,0.0,99.0
2010,4,30,11,0,?9?9?9?9E0?9?9?9?9*9?9?9?9?9*9?9*9*9?9*_?9?9*9?9*9,25.3,16.3,57,98090,1024,1346,393,607,357,335,72786,33881,36866,140,180,2.2,4,4,777.7,77777,9,999999999,0,0.0000,0,0,999.000,0.0,99.0
2010,4,30,12,0,?9?9?9?9E0?9?9?9?9*9?9?9?9?9*9?9*9*9?9*_?9?9*9?9*9,25.7,16.4,56,98090,1085,1346,399,597,260,387,71585,24721,42549,153,180,4.0,5,5,777.7,77777,9,999999999,0,0.0000,0,0,999.000,0.0,99.0
2010,4,30,13,0,?9?9?9?9E0?9?9?9?9*9?9?9?9?9*9?9*9*9?9*_?9?9*9?9*9,26.0,16.4,55,98090,1063,1346,400,616,321,362,73880,30536,39802,146,180,4.5,5,5,777.7,77777,9,999999999,0,0.0000,0,0,999.000,0.0,99.0
2010,4,30,14,0,?9?9?9?9E0?9?9?9?9*9?9?9?9?9*9?9*9*9?9*_?9?9*9?9*9,26.3,16.4,54,98090,960,1346,398,634,525,259,76040,49858,28528,116,180,4.0,4,4,777.7,77777,9,999999999,0,0.0000,0,0,999.000,0.0,99.0
2010,4,30,15,0,?9?9?9?9E0?9?9?9?9*9?9?9?9?9*9?9*9*9?9*_?9?9*9?9*9,26.4,16.4,54,98090,783,1346,392,589,750,153,70661,71209,16798,84,180,4.2,2,2,777.7,77777,9,999999999,0,0.0000,0,0,999.000,0.0,99.0
2010,4,30,16,0,?9?9?9?9E0?9?9?9?9*9?9?9?9?9*9?9*9*9?9*_?9?9*9?9*9,26.2,16.4,54,98090,545,1346,401,377,661,109,45210,62810,12027,86,180,4.0,5,5,777.7,77777,9,999999999,0,0.0000,0,0,999.000,0.0,99.0
2010,4,30,17,0,?9?9?9?9E0?9?9?9?9*9?9?9?9?9*9?9*9*9?9*_?9?9*9?9*9,25.8,16.4,56,98090,262,1346,402,209,547,103,25069,52007,11346,170,180,3.4,6,6,777.7,77777,9,999999999,0,0.0000,0,0,999.000,0.0,99.0
2010,4,30,18,0,?9?9?9?9E0?9?9?9?9*9?9?9?9?9*9?9*9*9?9*_?9?9*9?9*9,25.4,16.3,57,98090,0,1346,400,122,0,0,14586,0,0,0,180,3.0,6,6,777.7,77777,9,999999999,0,0.0000,0,0,999.000,0.0,99.0
2010,4,30,19,0,?9?9?9?9E0?9?9?9?9*9?9?9?9?9*9?9*9*9?9*_?9?9*9?9*9,25.0,16.3,58,98090,0,1346,398,46,0,0,5544,0,0,0,180,2.5,6,6,777.7,77777,9,999999999,0,0.0000,0,0,999.000,0.0,99.0
2010,4,30,20,0,?9?9?9?9E0?9?9?9?9*9?9?9?9?9*9?9*9*9?9*_?9?9*9?9*9,24.6,16.3,59,98090,0,1346,396,4,0,0,530,0,0,0,180,2.2,6,6,777.7,77777,9,999999999,0,0.0000,0,0,999.000,0.0,99.0
2010,4,30,21,0,?9?9?9?9E0?9?9?9?9*9?9?9?9?9*9?9*9*9?9*_?9?9*9?9*9,24.2,16.2,60,98090,0,1346,399,0,0,0,0,0,0,0,180,1.9,7,7,777.7,77777,9,999999999,0,0.0000,0,0,999.000,0.0,99.0
2010,4,30,22,0,?9?9?9?9E0?9?9?9?9*9?9?9?9?9*9?9*9*9?9*_?9?9*9?9*9,23.9,16.9,64,98090,0,1346,398,0,0,0,0,0,0,0,180,1.6,7,7,777.7,77777,9,999999999,0,0.0000,0,0,999.000,0.0,99.0
2010,4,30,23,0,?9?9?9?9E0?9?9?9?9*9?9?9?9?9*9?9*9*9?9*_?9?9*9?9*9,23.6,17.6,68,98090,0,1346,397,0,0,0,0,0,0,0,180,1.5,7,7,777.7,77777,9,999999999,0,0.0000,0,0,999.000,0.0,99.0
2010,4,30,24,0,?9?9?9?9E0?9?9?9?9*9?9?9?9?9*9?9*9*9?9*_?9?9*9?9*9,23.3,18.3,72,98090,0,1346,396,0,0,0,0,0,0,0,180,1.4,7,7,777.7,77777,9,999999999,0,0.0000,0,0,999.000,0.0,99.0
2015,5,1,1,0,?9?9?9?9E0?9?9?9?9*9?9?9?9?9*9?9*9*9?9*_?9?9*9?9*9,23.1,19.0,75,98090,0,1346,396,0,0,0,0,0,0,0,180,1.4,7,7,777.7,77777,9,999999999,0,0.0000,0,0,999.000,0.0,99.0
2015,5,1,2,0,?9?9?9?9E0?9?9?9?9*9?9?9?9?9*9?9*9*9?9*_?9?9*9?9*9,22.9,19.7,79,98090,0,1346,396,0,0,0,0,0,0,0,180,1.3,7,7,777.7,77777,9,999999999,0,0.0000,0,0,999.000,0.0,99.0
2015,5,1,3,0,?9?9?9?9E0?9?9?9?9*9?9?9?9?9*9?9*9*9?9*_?9?9*9?9*9,22.7,19.8,81,98090,0,1346,395,0,0,0,0,0,0,0,180,1.3,7,7,777.7,77777,9,999999999,0,0.0000,0,0,999.000,0.0,99.0
2015,5,1,4,0,?9?9?9?9E0?9?9?9?9*9?9?9?9?9*9?9*9*9?9*_?9?9*9?9*9,22.5,19.8,83,98090,0,1345,394,0,0,0,0,0,0,0,180,1.3,7,7,777.7,77777,9,999999999,0,0.0000,0,0,999.000,0.0,99.0
2015,5,1,5,0,?9?9?9?9E0?9?9?9?9*9?9?9?9?9*9?9*9*9?9*_?9?9*9?9*9,22.3,19.8,84,98090,0,1345,399,0,0,0,0,0,0,0,180,1.3,8,8,777.7,77777,9,999999999,0,0.0000,0,0,999.000,0.1,99.0
2015,5,1,6,0,?9?9?9?9E0?9?9?9?9*9?9?9?9?9*9?9*9*9?9*_?9?9*9?9*9,22.2,19.8,87,98090,0,1345,398,0,0,0,0,0,0,0,180,1.3,8,8,777.7,77777,9,999999999,0,0.0000,0,0,999.000,0.0,99.0
2015,5,1,7,0,?9?9?9?9E0?9?9?9?9*9?9?9?9?9*9?9*9*9?9*_?9?9*9?9*9,22.0,19.8,88,98090,118,1345,397,0,0,0,0,0,0,0,180,1.3,8,8,777.7,77777,9,999999999,0,0.0000,0,0,999.000,0.3,99.0
2015,5,1,8,0,?9?9?9?9E0?9?9?9?9*9?9?9?9?9*9?9*9*9?9*_?9?9*9?9*9,21.9,19.9,84,98090,414,1345,397,90,0,90,10836,0,9933,94,180,1.3,8,8,777.7,77777,9,999999999,0,0.0000,0,0,999.000,0.0,99.0
2015,5,1,9,0,?9?9?9?9E0?9?9?9?9*9?9?9?9?9*9?9*9*9?9*_?9?9*9?9*9,24.1,19.6,74,98090,675,1345,402,255,80,215,30631,7571,23682,137,180,1.7,7,7,777.7,77777,9,999999999,0,0.0000,0,0,999.000,0.0,99.0
2015,5,1,10,0,?9?9?9?9E0?9?9?9?9*9?9?9?9?9*9?9*9*9?9*_?9?9*9?9*9,25.1,19.5,69,98090,882,1345,402,401,120,322,48143,11420,35460,156,180,2.5,6,6,777.7,77777,9,999999999,0,0.0000,0,0,999.000,0.0,99.0
2015,5,1,11,0,?9?9?9?9E0?9?9?9?9*9?9?9?9?9*9?9*9*9?9*_?9?9*9?9*9,25.9,19.4,66,98090,1021,1345,407,510,124,416,61224,11765,45786,175,180,3.2,6,6,777.7,77777,9,999999999,0,0.0000,0,0,999.000,0.0,99.0
2015,5,1,12,0,?9?9?9?9E0?9?9?9?9*9?9?9?9?9*9?9*9*9?9*_?9?9*9?9*9,26.6,19.4,64,98090,1081,1345,410,573,181,427,68782,17225,47023,169,180,3.5,6,6,777.7,77777,9,999999999,0,0.0000,0,0,999.000,0.0,99.0
2015,5,1,13,0,?9?9?9?9E0?9?9?9?9*9?9?9?9?9*9?9*9*9?9*_?9?9*9?9*9,27.0,19.3,62,98090,1059,1345,413,585,296,353,70240,28075,38797,143,180,3.6,6,6,777.7,77777,9,999999999,0,0.0000,0,0,999.000,0.0,99.0
2015,5,1,14,0,?9?9?9?9E0?9?9?9?9*9?9?9?9?9*9?9*9*9?9*_?9?9*9?9*9,27.3,19.3,61,98090,956,1345,414,546,354,294,65489,33670,32323,132,180,4.6,6,6,777.7,77777,9,999999999,0,0.0000,0,0,999.000,0.0,99.0
2015,5,1,15,0,?9?9?9?9E0?9?9?9?9*9?9?9?9?9*9?9*9*9?9*_?9?9*9?9*9,27.3,19.3,61,98090,780,1345,415,457,434,206,54888,41214,22664,113,180,5.2,6,6,777.7,77777,9,999999999,0,0.0000,0,0,999.000,0.0,99.0
2015,5,1,16,0,?9?9?9?9E0?9?9?9?9*9?9?9?9?9*9?9*9*9?9*_?9?9*9?9*9,27.1,19.3,62,98090,542,1345,418,327,547,107,39271,51985,11791,85,180,4.8,7,7,777.7,77777,9,999999999,0,0.0000,0,0,999.000,0.0,99.0
2015,5,1,17,0,?9?9?9?9E0?9?9?9?9*9?9?9?9?9*9?9*9*9?9*_?9?9*9?9*9,26.6,19.4,64,98090,259,1345,422,168,406,90,20132,38547,9926,150,180,4.8,8,8,777.7,77777,9,999999999,0,0.0000,0,0,999.000,0.0,99.0
2015,5,1,18,0,?9?9?9?9E0?9?9?9?9*9?9?9?9?9*9?9*9*9?9*_?9?9*9?9*9,26.1,19.4,70,98090,0,1345,419,16,0,0,1956,0,0,0,180,4.4,8,8,777.7,77777,9,999999999,0,0.0000,0,0,999.000,0.1,99.0
2015,5,1,19,0,?9?9?9?9E0?9?9?9?9*9?9?9?9?9*9?9*9*9?9*_?9?9*9?9*9,25.6,19.5,71,98090,0,1345,417,0,0,0,0,0,0,0,180,2.9,8,8,777.7,77777,9,999999999,0,0.0000,0,0,999.000,0.1,99.0
2015,5,1,20,0,?9?9?9?9E0?9?9?9?9*9?9?9?9?9*9?9*9*9?9*_?9?9*9?9*9,25.2,19.5,73,98090,0,1345,414,0,0,0,0,0,0,0,180,2.3,8,8,777.7,77777,9,999999999,0,0.0000,0,0,999.000,0.0,99.0
2015,5,1,21,0,?9?9?9?9E0?9?9?9?9*9?9?9?9?9*9?9*9*9?9*_?9?9*9?9*9,24.7,19.5,75,98090,0,1345,412,0,0,0,0,0,0,0,180,1.3,8,8,777.7,77777,9,999999999,0,0.0000,0,0,999.000,0.0,99.0
2015,5,1,22,0,?9?9?9?9E0?9?9?9?9*9?9?9?9?9*9?9*9*9?9*_?9?9*9?9*9,24.3,19.6,86,98090,0,1345,409,0,0,0,0,0,0,0,180,1.3,8,8,777.7,77777,9,999999999,5,0.0000,0,0,999.000,5.4,99.0
2015,5,1,23,0,?9?9?9?9E0?9?9?9?9*9?9?9?9?9*9?9*9*9?9*_?9?9*9?9*9,23.8,19.6,75,98090,0,1345,407,0,0,0,0,0,0,0,180,1.3,8,8,777.7,77777,9,999999999,0,0.0000,0,0,999.000,0.0,99.0
2015,5,1,24,0,?9?9?9?9E0?9?9?9?9*9?9?9?9?9*9?9*9*9?9*_?9?9*9?9*9,23.4,19.1,74,98090,0,1345,404,0,0,0,0,0,0,0,180,1.3,8,8,777.7,77777,9,999999999,0,0.0000,0,0,999.000,0.0,99.0
2015,5,2,1,0,?9?9?9?9E0?9?9?9?9*9?9?9?9?9*9?9*9*9?9*_?9?9*9?9*9,23.1,19.1,76,98090,0,1345,403,0,0,0,0,0,0,0,180,1.3,8,8,777.7,77777,9,999999999,0,0.0000,0,0,999.000,0.0,99.0
2015,5,2,2,0,?9?9?9?9E0?9?9?9?9*9?9?9?9?9*9?9*9*9?9*_?9?9*9?9*9,22.9,19.1,77,98090,0,1345,401,0,0,0,0,0,0,0,180,1.3,8,8,777.7,77777,9,999999999,0,0.0000,0,0,999.000,0.0,99.0
2015,5,2,3,0,?9?9?9?9E0?9?9?9?9*9?9?9?9?9*9?9*9*9?9*_?9?9*9?9*9,22.7,19.2,82,98090,0,1345,400,0,0,0,0,0,0,0,180,1.3,8,8,777.7,77777,9,999999999,0,0.0000,0,0,999.000,0.1,99.0
2015,5,2,4,0,?9?9?9?9E0?9?9?9?9*9?9?9?9?9*9?9*9*9?9*_?9?9*9?9*9,22.4,19.2,83,98090,0,1344,399,0,0,0,0,0,0,0,180,1.3,8,8,777.7,77777,9,999999999,0,0.0000,0,0,999.000,0.0,99.0
2015,5,2,5,0,?9?9?9?9E0?9?9?9?9*9?9?9?9?9*9?9*9*9?9*_?9?9*9?9*9,22.2,19.3,80,98090,0,1344,398,0,0,0,0,0,0,0,180,1.3,8,8,777.7,77777,9,999999999,0,0.0000,0,0,999.000,0.0,99.0
2015,5,2,6,0,?9?9?9?9E0?9?9?9?9*9?9?9?9?9*9?9*9*9?9*_?9?9*9?9*9,22.0,19.3,85,98090,0,1344,397,0,0,0,0,0,0,0,180,1.3,8,8,777.7,77777,9,999999999,0,0.0000,0,0,999.000,0.0,99.0
2015,5,2,7,0,?9?9?9?9E0?9?9?9?9*9?9?9?9?9*9?9*9*9?9*_?9?9*9?9*9,21.9,19.3,86,98090,116,1344,396,0,0,0,0,0,0,0,180,1.3,8,8,777.7,77777,9,999999999,0,0.0000,0,0,999.000,0.0,99.0
2015,5,2,8,0,?9?9?9?9E0?9?9?9?9*9?9?9?9?9*9?9*9*9?9*_?9?9*9?9*9,21.7,19.3,82,98090,411,1344,395,72,0,72,8600,0,7884,75,180,1.3,8,8,777.7,77777,9,999999999,0,0.0000,0,0,999.000,0.0,99.0
2015,5,2,9,0,?9?9?9?9E0?9?9?9?9*9?9?9?9?9*9?9*9*9?9*_?9?9*9?9*9,23.4,19.1,74,98090,672,1344,404,204,34,187,24468,3265,20541,119,180,1.3,8,8,777.7,77777,9,999999999,0,0.0000,0,0,999.000,0.0,99.0
2015,5,2,10,0,?9?9?9?9E0?9?9?9?9*9?9?9?9?9*9?9*9*9?9*_?9?9*9?9*9,24.1,19.0,71,98090,878,1344,408,321,51,288,38509,4830,31648,140,180,2.3,8,8,777.7,77777,9,999999999,0,0.0000,0,0,999.000,0.0,99.0
2015,5,2,11,0,?9?9?9?9E0?9?9?9?9*9?9?9?9?9*9?9*9*9?9*_?9?9*9?9*9,24.8,18.9,68,98090,1016,1344,411,408,52,369,48995,4909,40616,156,180,3.2,8,8,777.7,77777,9,999999999,0,0.0000,0,0,999.000,0.0,99.0
2015,5,2,12,0,?9?9?9?9E0?9?9?9?9*9?9?9?9?9*9?9*9*9?9*_?9?9*9?9*9,25.3,18.8,66,98090,1076,1344,407,459,76,398,55049,7246,43746,158,180,3.5,7,7,777.7,77777,9,999999999,0,0.0000,0,0,999.000,0.0,99.0
2015,5,2,13,0,?9?9?9?9E0?9?9?9?9*9?9?9?9?9*9?9*9*9?9*_?9?9*9?9*9,25.6,18.7,65,98090,1054,1344,409,468,92,396,56209,8727,43603,161,180,4.7,7,7,777.7,77777,9,999999999,0,0.0000,0,0,999.000,0.0,99.0
2015,5,2,14,0,?9?9?9?9E0?9?9?9?9*9?9?9?9?9*9?9*9*9?9*_?9?9*9?9*9,25.9,18.7,64,98090,951,1344,410,437,93,370,52388,8879,40748,167,180,4.9,7,7,777.7,77777,9,999999999,0,0.0000,0,0,999.000,0.0,99.0
2015,5,2,15,0,?9?9?9?9E0?9?9?9?9*9?9?9?9?9*9?9*9*9?9*_?9?9*9?9*9,25.9,18.7,64,98090,775,1344,417,366,153,277,43874,14561,30502,153,180,4.9,8,8,777.7,77777,9,999999999,0,0.0000,0,0,999.000,0.0,99.0
2015,5,2,16,0,?9?9?9?9E0?9?9?9?9*9?9?9?9?9*9?9*9*9?9*_?9?9*9?9*9,25.7,18.7,65,98090,537,1344,416,261,254,160,31340,24150,17565,127,180,4.7,8,8,777.7,77777,9,999999999,0,0.0000,0,0,999.000,0.0,99.0
2015,5,2,17,0,?9?9?9?9E0?9?9?9?9*9?9?9?9?9*9?9*9*9?9*_?9?9*9?9*9,25.3,18.8,66,98090,255,1344,414,133,384,61,15986,36484,6696,103,180,4.4,8,8,777.7,77777,9,999999999,0,0.0000,0,0,999.000,0.0,99.0
2015,5,2,18,0,?9?9?9?9E0?9?9?9?9*9?9?9?9?9*9?9*9*9?9*_?9?9*9?9*9,24.9,18.8,68,98090,0,1344,412,12,0,0,1477,0,0,0,180,3.8,8,8,777.7,77777,9,999999999,0,0.0000,0,0,999.000,0.0,99.0
2015,5,2,19,0,?9?9?9?9E0?9?9?9?9*9?9?9?9?9*9?9*9*9?9*_?9?9*9?9*9,24.6,18.9,69,98090,0,1344,410,0,0,0,0,0,0,0,180,2.8,8,8,777.7,77777,9,999999999,0,0.0000,0,0,999.000,0.0,99.0
2015,5,2,20,0,?9?9?9?9E0?9?9?9?9*9?9?9?9?9*9?9*9*9?9*_?9?9*9?9*9,24.2,19.0,71,98090,0,1344,408,0,0,0,0,0,0,0,180,2.2,8,8,777.7,77777,9,999999999,0,0.0000,0,0,999.000,0.0,99.0
2015,5,2,21,0,?9?9?9?9E0?9?9?9?9*9?9?9?9?9*9?9*9*9?9*_?9?9*9?9*9,23.8,19.0,72,98090,0,1344,406,0,0,0,0,0,0,0,180,1.8,8,8,777.7,77777,9,999999999,0,0.0000,0,0,999.000,0.0,99.0
2015,5,2,22,0,?9?9?9?9E0?9?9?9?9*9?9?9?9?9*9?9*9*9?9*_?9?9*9?9*9,23.5,19.1,78,98090,0,1344,404,0,0,0,0,0,0,0,180,1.4,8,8,777.7,77777,9,999999999,0,0.0000,0,0,999.000,0.1,99.0
2015,5,2,23,0,?9?9?9?9E0?9?9?9?9*9?9?9?9?9*9?9*9*9?9*_?9?9*9?9*9,23.1,19.1,84,98090,0,1344,402,0,0,0,0,0,0,0,180,1.5,8,8,777.7,77777,9,999999999,2,0.0000,0,0,999.000,2.8,99.0
2015,5,2,24,0,?9?9?9?9E0?9?9?9?9*9?9?9?9?9*9?9*9*9?9*_?9?9*9?9*9,22.8,19.1,85,98090,0,1344,400,0,0,0,0,0,0,0,180,1.3,8,8,777.7,77777,9,999999999,4,0.0000,0,0,999.000,4.5,99.0
2015,5,3,1,0,?9?9?9?9E0?9?9?9?9*9?9?9?9?9*9?9*9*9?9*_?9?9*9?9*9,22.6,19.1,77,98090,0,1344,399,0,0,0,0,0,0,0,180,1.2,8,8,777.7,77777,9,999999999,0,0.0000,0,0,999.000,0.0,99.0
2015,5,3,2,0,?9?9?9?9E0?9?9?9?9*9?9?9?9?9*9?9*9*9?9*_?9?9*9?9*9,22.4,19.1,78,98090,0,1344,399,0,0,0,0,0,0,0,180,1.2,8,8,777.7,77777,9,999999999,0,0.0000,0,0,999.000,0.0,99.0
2015,5,3,3,0,?9?9?9?9E0?9?9?9?9*9?9?9?9?9*9?9*9*9?9*_?9?9*9?9*9,22.2,19.1,79,98090,0,1344,398,0,0,0,0,0,0,0,180,1.2,8,8,777.7,77777,9,999999999,0,0.0000,0,0,999.000,0.0,99.0
2015,5,3,4,0,?9?9?9?9E0?9?9?9?9*9?9?9?9?9*9?9*9*9?9*_?9?9*9?9*9,22.0,19.2,80,98090,0,1344,397,0,0,0,0,0,0,0,180,1.2,8,8,777.7,77777,9,999999999,0,0.0000,0,0,999.000,0.0,99.0
2015,5,3,5,0,?9?9?9?9E0?9?9?9?9*9?9?9?9?9*9?9*9*9?9*_?9?9*9?9*9,21.9,19.2,81,98090,0,1344,396,0,0,0,0,0,0,0,180,1.2,8,8,777.7,77777,9,999999999,0,0.0000,0,0,999.000,0.0,99.0
2015,5,3,6,0,?9?9?9?9E0?9?9?9?9*9?9?9?9?9*9?9*9*9?9*_?9?9*9?9*9,21.7,19.2,81,98090,0,1344,395,0,0,0,0,0,0,0,180,1.2,8,8,777.7,77777,9,999999999,0,0.0000,0,0,999.000,0.0,99.0
2015,5,3,7,0,?9?9?9?9E0?9?9?9?9*9?9?9?9?9*9?9*9*9?9*_?9?9*9?9*9,21.6,19.2,82,98090,113,1344,394,0,0,0,0,0,0,0,180,1.2,8,8,777.7,77777,9,999999999,0,0.0000,0,0,999.000,0.0,99.0
2015,5,3,8,0,?9?9?9?9E0?9?9?9?9*9?9?9?9?9*9?9*9*9?9*_?9?9*9?9*9,21.5,19.3,87,98090,408,1344,394,69,0,69,8226,0,7541,72,180,1.2,8,8,777.7,77777,9,999999999,0,0.0000,0,0,999.000,0.0,99.0
2015,5,3,9,0,?9?9?9?9E0?9?9?9?9*9?9?9?9?9*9?9*9*9?9*_?9?9*9?9*9,23.4,19.0,73,98090,668,1344,404,196,29,182,23556,2711,20033,117,180,1.5,8,8,777.7,77777,9,999999999,0,0.0000,0,0,999.000,0.0,99.0
2015,5,3,10,0,?9?9?9?9E0?9?9?9?9*9?9?9?9?9*9?9*9*9?9*_?9?9*9?9*9,24.2,18.9,74,98090,874,1344,408,309,44,280,37126,4224,30851,137,180,2.6,8,8,777.7,77777,9,999999999,0,0.0000,0,0,999.000,0.0,99.0
2015,5,3,11,0,?9?9?9?9E0?9?9?9?9*9?9?9?9?9*9?9*9*9?9*_?9?9*9?9*9,25.0,18.8,67,98090,1012,1344,412,394,46,360,47257,4324,39550,152,180,3.7,8,8,777.7,77777,9,999999999,0,0.0000,0,0,999.000,0.0,99.0
2015,5,3,12,0,?9?9?9?9E0?9?9?9?9*9?9?9?9?9*9?9*9*9?9*_?9?9*9?9*9,25.6,18.7,69,98090,1072,1344,415,443,67,389,53102,6392,42776,155,180,4.7,8,8,777.7,77777,9,999999999,0,0.0000,0,0,999.000,0.1,99.0
2015,5,3,13,0,?9?9?9?9E0?9?9?9?9*9?9?9?9?9*9?9*9*9?9*_?9?9*9?9*9,26.0,18.6,67,98090,1049,1344,418,452,81,388,54215,7704,42731,158,180,5.0,8,8,777.7,77777,9,999999999,0,0.0000,0,0,999.000,0.1,99.0
2015,5,3,14,0,?9?9?9?9E0?9?9?9?9*9?9?9?9?9*9?9*9*9?9*_?9?9*9?9*9,26.2,18.6,62,98090,947,1344,419,421,83,363,50513,7853,39899,164,180,5.6,8,8,777.7,77777,9,999999999,0,0.0000,0,0,999.000,0.0,99.0
2015,5,3,15,0,?9?9?9?9E0?9?9?9?9*9?9?9?9?9*9?9*9*9?9*_?9?9*9?9*9,26.3,18.6,62,98090,771,1344,419,352,144,270,42272,13710,29650,150,180,6.0,8,8,777.7,77777,9,999999999,0,0.0000,0,0,999.000,0.0,99.0
2015,5,3,16,0,?9?9?9?9E0?9?9?9?9*9?9?9?9?9*9?9*9*9?9*_?9?9*9?9*9,26.0,18.6,63,98090,533,1344,418,251,228,161,30148,21657,17697,129,180,6.0,8,8,777.7,77777,9,999999999,0,0.0000,0,0,999.000,0.0,99.0
2015,5,3,17,0,?9?9?9?9E0?9?9?9?9*9?9?9?9?9*9?9*9*9?9*_?9?9*9?9*9,25.6,18.7,65,98090,252,1344,415,128,355,62,15302,33718,6775,106,180,5.4,8,8,777.7,77777,9,999999999,0,0.0000,0,0,999.000,0.0,99.0
2015,5,3,18,0,?9?9?9?9E0?9?9?9?9*9?9?9?9?9*9?9*9*9?9*_?9?9*9?9*9,25.1,18.7,66,98090,0,1344,413,11,0,0,1344,0,0,0,180,4.3,8,8,777.7,77777,9,999999999,0,0.0000,0,0,999.000,0.0,99.0
2015,5,3,19,0,?9?9?9?9E0?9?9?9?9*9?9?9?9?9*9?9*9*9?9*_?9?9*9?9*9,24.6,18.8,68,98090,0,1344,410,0,0,0,0,0,0,0,180,3.7,8,8,777.7,77777,9,999999999,0,0.0000,0,0,999.000,0.0,99.0
2015,5,3,20,0,?9?9?9?9E0?9?9?9?9*9?9?9?9?9*9?9*9*9?9*_?9?9*9?9*9,24.1,18.9,70,98090,0,1344,408,0,0,0,0,0,0,0,180,2.8,8,8,777.7,77777,9,999999999,0,0.0000,0,0,999.000,0.0,99.0
2015,5,3,21,0,?9?9?9?9E0?9?9?9?9*9?9?9?9?9*9?9*9*9?9*_?9?9*9?9*9,23.7,18.9,72,98090,0,1344,405,0,0,0,0,0,0,0,180,1.9,8,8,777.7,77777,9,999999999,0,0.0000,0,0,999.000,0.0,99.0
2015,5,3,22,0,?9?9?9?9E0?9?9?9?9*9?9?9?9?9*9?9*9*9?9*_?9?9*9?9*9,23.2,19.0,78,98090,0,1344,403,0,0,0,0,0,0,0,180,1.4,8,8,777.7,77777,9,999999999,0,0.0000,0,0,999.000,0.2,99.0
2015,5,3,23,0,?9?9?9?9E0?9?9?9?9*9?9?9?9?9*9?9*9*9?9*_?9?9*9?9*9,22.7,19.1,81,98090,0,1344,400,0,0,0,0,0,0,0,180,1.2,8,8,777.7,77777,9,999999999,0,0.0000,0,0,999.000,0.0,99.0
2015,5,3,24,0,?9?9?9?9E0?9?9?9?9*9?9?9?9?9*9?9*9*9?9*_?9?9*9?9*9,22.2,18.9,79,98090,0,1344,398,0,0,0,0,0,0,0,180,1.4,8,8,777.7,77777,9,999999999,0,0.0000,0,0,999.000,0.0,99.0
2015,5,4,1,0,?9?9?9?9E0?9?9?9?9*9?9?9?9?9*9?9*9*9?9*_?9?9*9?9*9,22.0,19.0,80,98090,0,1344,396,0,0,0,0,0,0,0,180,1.4,8,8,777.7,77777,9,999999999,0,0.0000,0,0,999.000,0.2,99.0
2015,5,4,2,0,?9?9?9?9E0?9?9?9?9*9?9?9?9?9*9?9*9*9?9*_?9?9*9?9*9,21.8,19.0,81,98090,0,1344,395,0,0,0,0,0,0,0,180,1.4,8,8,777.7,77777,9,999999999,0,0.0000,0,0,999.000,0.0,99.0
2015,5,4,3,0,?9?9?9?9E0?9?9?9?9*9?9?9?9?9*9?9*9*9?9*_?9?9*9?9*9,21.5,19.0,82,98090,0,1344,394,0,0,0,0,0,0,0,180,1.4,8,8,777.7,77777,9,999999999,0,0.0000,0,0,999.000,0.2,99.0
2015,5,4,4,0,?9?9?9?9E0?9?9?9?9*9?9?9?9?9*9?9*9*9?9*_?9?9*9?9*9,21.3,19.1,83,98090,0,1343,393,0,0,0,0,0,0,0,180,1.4,8,8,777.7,77777,9,999999999,0,0.0000,0,0,999.000,0.1,99.0
2015,5,4,5,0,?9?9?9?9E0?9?9?9?9*9?9?9?9?9*9?9*9*9?9*_?9?9*9?9*9,21.1,19.1,84,98090,0,1343,391,0,0,0,0,0,0,0,180,1.4,8,8,777.7,77777,9,999999999,0,0.0000,0,0,999.000,0.5,99.0
2015,5,4,6,0,?9?9?9?9E0?9?9?9?9*9?9?9?9?9*9?9*9*9?9*_?9?9*9?9*9,20.9,19.2,91,98090,0,1343,391,0,0,0,0,0,0,0,180,1.4,8,8,777.7,77777,9,999999999,7,0.0000,0,0,999.000,7.9,99.0
2015,5,4,7,0,?9?9?9?9E0?9?9?9?9*9?9?9?9?9*9?9*9*9?9*_?9?9*9?9*9,20.7,19.2,85,98090,111,1343,390,0,0,0,0,0,0,0,180,1.4,8,8,777.7,77777,9,999999999,0,0.0000,0,0,999.000,0.1,99.0
2015,5,4,8,0,?9?9?9?9E0?9?9?9?9*9?9?9?9?9*9?9*9*9?9*_?9?9*9?9*9,20.6,19.2,86,98090,405,1343,389,78,0,78,9323,0,8546,82,180,1.4,8,8,777.7,77777,9,999999999,0,0.0000,0,0,999.000,0.0,99.0
2015,5,4,9,0,?9?9?9?9E0?9?9?9?9*9?9?9?9?9*9?9*9*9?9*_?9?9*9?9*9,22.7,18.8,77,98090,665,1343,400,224,59,195,26878,5615,21423,125,180,1.4,8,8,777.7,77777,9,999999999,0,0.0000,0,0,999.000,0.0,99.0
2015,5,4,10,0,?9?9?9?9E0?9?9?9?9*9?9?9?9?9*9?9*9*9?9*_?9?9*9?9*9,23.7,18.6,69,98090,870,1343,399,354,77,304,42421,7287,33421,149,180,2.2,7,7,777.7,77777,9,999999999,0,0.0000,0,0,999.000,0.0,99.0
2015,5,4,11,0,?9?9?9?9E0?9?9?9?9*9?9?9?9?9*9?9*9*9?9*_?9?9*9?9*9,24.5,18.5,66,98090,1007,1343,403,450,80,390,54025,7602,42922,166,180,2.9,7,7,777.7,77777,9,999999999,0,0.0000,0,0,999.000,0.0,99.0
2015,5,4,12,0,?9?9?9?9E0?9?9?9?9*9?9?9?9?9*9?9*9*9?9*_?9?9*9?9*9,25.2,18.3,64,98090,1067,1343,406,506,118,412,60715,11193,45361,165,180,3.6,7,7,777.7,77777,9,999999999,0,0.0000,0,0,999.000,0.0,99.0
2015,5,4,13,0,?9?9?9?9E0?9?9?9?9*9?9?9?9?9*9?9*9*9?9*_?9?9*9?9*9,25.7,18.2,63,98090,1045,1343,409,517,141,406,61981,13442,44712,166,180,4.9,7,7,777.7,77777,9,999999999,0,0.0000,0,0,999.000,0.0,99.0
2015,5,4,14,0,?9?9?9?9E0?9?9?9?9*9?9?9?9?9*9?9*9*9?9*_?9?9*9?9*9,25.9,18.2,62,98090,942,1343,410,481,143,381,57728,13577,41893,173,180,4.9,7,7,777.7,77777,9,999999999,0,0.0000,0,0,999.000,0.0,99.0
2015,5,4,15,0,?9?9?9?9E0?9?9?9?9*9?9?9?9?9*9?9*9*9?9*_?9?9*9?9*9,26.0,18.2,62,98090,766,1343,411,402,306,228,48277,29086,25050,127,180,5.5,7,7,777.7,77777,9,999999999,0,0.0000,0,0,999.000,0.0,99.0
2015,5,4,16,0,?9?9?9?9E0?9?9?9?9*9?9?9?9?9*9?9*9*9?9*_?9?9*9?9*9,25.7,18.2,62,98090,529,1343,409,286,389,133,34376,36962,14670,108,180,5.2,7,7,777.7,77777,9,999999999,0,0.0000,0,0,999.000,0.0,99.0
2015,5,4,17,0,?9?9?9?9E0?9?9?9?9*9?9?9?9?9*9?9*9*9?9*_?9?9*9?9*9,25.2,18.3,64,98090,248,1343,413,145,361,79,17365,34253,8652,137,180,4.2,8,8,777.7,77777,9,999999999,0,0.0000,0,0,999.000,0.0,99.0
2015,5,4,18,0,?9?9?9?9E0?9?9?9?9*9?9?9?9?9*9?9*9*9?9*_?9?9*9?9*9,24.7,18.4,66,98090,0,1343,410,12,0,0,1447,0,0,0,180,3.5,8,8,777.7,77777,9,999999999,0,0.0000,0,0,999.000,0.0,99.0
2015,5,4,19,0,?9?9?9?9E0?9?9?9?9*9?9?9?9?9*9?9*9*9?9*_?9?9*9?9*9,24.3,18.5,67,98090,0,1343,408,0,0,0,0,0,0,0,180,2.2,8,8,777.7,77777,9,999999999,0,0.0000,0,0,999.000,0.0,99.0
2015,5,4,20,0,?9?9?9?9E0?9?9?9?9*9?9?9?9?9*9?9*9*9?9*_?9?9*9?9*9,23.8,18.6,69,98090,0,1343,405,0,0,0,0,0,0,0,180,1.5,8,8,777.7,77777,9,999999999,0,0.0000,0,0,999.000,0.0,99.0
2015,5,4,21,0,?9?9?9?9E0?9?9?9?9*9?9?9?9?9*9?9*9*9?9*_?9?9*9?9*9,23.3,18.7,71,98090,0,1343,403,0,0,0,0,0,0,0,180,1.4,8,8,777.7,77777,9,999999999,0,0.0000,0,0,999.000,0.0,99.0
2015,5,4,22,0,?9?9?9?9E0?9?9?9?9*9?9?9?9?9*9?9*9*9?9*_?9?9*9?9*9,22.9,18.8,73,98090,0,1343,401,0,0,0,0,0,0,0,180,1.4,8,8,777.7,77777,9,999999999,0,0.0000,0,0,999.000,0.0,99.0
2015,5,4,23,0,?9?9?9?9E0?9?9?9?9*9?9?9?9?9*9?9*9*9?9*_?9?9*9?9*9,22.4,18.9,75,98090,0,1343,398,0,0,0,0,0,0,0,180,1.4,8,8,777.7,77777,9,999999999,0,0.0000,0,0,999.000,0.0,99.0
2015,5,4,24,0,?9?9?9?9E0?9?9?9?9*9?9?9?9?9*9?9*9*9?9*_?9?9*9?9*9,21.9,16.0,69,98090,0,1343,392,0,0,0,0,0,0,0,180,1.4,8,8,777.7,77777,9,999999999,0,0.0000,0,0,999.000,0.0,99.0
2015,5,5,1,0,?9?9?9?9E0?9?9?9?9*9?9?9?9?9*9?9*9*9?9*_?9?9*9?9*9,21.7,16.0,70,98090,0,1343,385,0,0,0,0,0,0,0,180,1.4,7,7,777.7,77777,9,999999999,0,0.0000,0,0,999.000,0.0,99.0
2015,5,5,2,0,?9?9?9?9E0?9?9?9?9*9?9?9?9?9*9?9*9*9?9*_?9?9*9?9*9,21.4,16.1,71,98090,0,1343,384,0,0,0,0,0,0,0,180,1.4,7,7,777.7,77777,9,999999999,0,0.0000,0,0,999.000,0.0,99.0
2015,5,5,3,0,?9?9?9?9E0?9?9?9?9*9?9?9?9?9*9?9*9*9?9*_?9?9*9?9*9,21.2,16.1,72,98090,0,1343,382,0,0,0,0,0,0,0,180,1.4,7,7,777.7,77777,9,999999999,0,0.0000,0,0,999.000,0.0,99.0
2015,5,5,4,0,?9?9?9?9E0?9?9?9?9*9?9?9?9?9*9?9*9*9?9*_?9?9*9?9*9,21.0,16.1,73,98090,0,1342,381,0,0,0,0,0,0,0,180,1.4,7,7,777.7,77777,9,999999999,0,0.0000,0,0,999.000,0.0,99.0
2015,5,5,5,0,?9?9?9?9E0?9?9?9?9*9?9?9?9?9*9?9*9*9?9*_?9?9*9?9*9,20.7,16.1,74,98090,0,1342,380,0,0,0,0,0,0,0,180,1.4,7,7,777.7,77777,9,999999999,0,0.0000,0,0,999.000,0.0,99.0
2015,5,5,6,0,?9?9?9?9E0?9?9?9?9*9?9?9?9?9*9?9*9*9?9*_?9?9*9?9*9,20.6,16.1,75,98090,0,1342,379,0,0,0,0,0,0,0,180,1.4,7,7,777.7,77777,9,999999999,0,0.0000,0,0,999.000,0.0,99.0
2015,5,5,7,0,?9?9?9?9E0?9?9?9?9*9?9?9?9?9*9?9*9*9?9*_?9?9*9?9*9,20.4,16.1,76,98090,109,1342,378,0,0,0,0,0,0,0,180,1.4,7,7,777.7,77777,9,999999999,0,0.0000,0,0,999.000,0.0,99.0
2015,5,5,8,0,?9?9?9?9E0?9?9?9?9*9?9?9?9?9*9?9*9*9?9*_?9?9*9?9*9,20.2,16.1,77,98090,402,1342,377,112,15,108,13459,1452,11835,115,180,1.4,7,7,777.7,77777,9,999999999,0,0.0000,0,0,999.000,0.0,99.0
2015,5,5,9,0,?9?9?9?9E0?9?9?9?9*9?9?9?9?9*9?9*9*9?9*_?9?9*9?9*9,22.5,16.0,66,98090,661,1342,378,317,200,218,38003,19043,23983,141,180,1.4,4,4,777.7,77777,9,999999999,0,0.0000,0,0,999.000,0.0,99.0
2015,5,5,10,0,?9?9?9?9E0?9?9?9?9*9?9?9?9?9*9?9*9*9?9*_?9?9*9?9*9,23.5,15.9,62,98090,866,1342,383,485,309,286,58204,29346,31433,141,180,1.9,4,4,777.7,77777,9,999999999,0,0.0000,0,0,999.000,0.0,99.0
2015,5,5,11,0,?9?9?9?9E0?9?9?9?9*9?9?9?9?9*9?9*9*9?9*_?9?9*9?9*9,24.4,15.9,59,98090,1003,1342,385,625,429,304,74959,40713,33492,130,180,2.9,3,3,777.7,77777,9,999999999,0,0.0000,0,0,999.000,0.0,99.0
2015,5,5,12,0,?9?9?9?9E0?9?9?9?9*9?9?9?9?9*9?9*9*9?9*_?9?9*9?9*9,25.1,15.8,56,98090,1062,1342,385,718,560,275,86113,53183,30210,110,180,4.1,2,2,777.7,77777,9,999999999,0,0.0000,0,0,999.000,0.0,99.0
2015,5,5,13,0,?9?9?9?9E0?9?9?9?9*9?9?9?9?9*9?9*9*9?9*_?9?9*9?9*9,25.6,15.8,54,98090,1040,1342,382,746,688,213,89525,65357,23446,88,180,4.5,1,1,777.7,77777,9,999999999,0,0.0000,0,0,999.000,0.0,99.0
2015,5,5,14,0,?9?9?9?9E0?9?9?9?9*9?9?9?9?9*9?9*9*9?9*_?9?9*9?9*9,25.9,15.8,53,98090,937,1342,384,695,820,122,83356,77876,13454,56,180,4.9,1,1,777.7,77777,9,999999999,0,0.0000,0,0,999.000,0.0,99.0
2015,5,5,15,0,?9?9?9?9E0?9?9?9?9*9?9?9?9?9*9?9*9*9?9*_?9?9*9?9*9,26.0,15.8,53,98090,762,1342,389,581,760,149,69678,72235,16426,84,180,5.4,2,2,777.7,77777,9,999999999,0,0.0000,0,0,999.000,0.0,99.0
2015,5,5,16,0,?9?9?9?9E0?9?9?9?9*9?9?9?9?9*9?9*9*9?9*_?9?9*9?9*9,25.7,15.8,54,98090,525,1342,392,410,637,161,49145,60545,17656,131,180,4.7,3,3,777.7,77777,9,999999999,0,0.0000,0,0,999.000,0.0,99.0
2015,5,5,17,0,?9?9?9?9E0?9?9?9?9*9?9?9?9?9*9?9*9*9?9*_?9?9*9?9*9,25.1,15.8,56,98090,245,1342,395,211,544,113,25336,51675,12412,199,180,4.1,5,5,777.7,77777,9,999999999,0,0.0000,0,0,999.000,0.0,99.0
2015,5,5,18,0,?9?9?9?9E0?9?9?9?9*9?9?9?9?9*9?9*9*9?9*_?9?9*9?9*9,24.7,15.9,57,98090,0,1342,392,16,0,0,1896,0,0,0,180,3.3,5,5,777.7,77777,9,999999999,0,0.0000,0,0,999.000,0.0,99.0
2015,5,5,19,0,?9?9?9?9E0?9?9?9?9*9?9?9?9?9*9?9*9*9?9*_?9?9*9?9*9,24.2,15.9,59,98090,0,1342,390,0,0,0,0,0,0,0,180,2.9,5,5,777.7,77777,9,999999999,0,0.0000,0,0,999.000,0.0,99.0
2015,5,5,20,0,?9?9?9?9E0?9?9?9?9*9?9?9?9?9*9?9*9*9?9*_?9?9*9?9*9,23.8,15.9,61,98090,0,1342,388,0,0,0,0,0,0,0,180,2.2,5,5,777.7,77777,9,999999999,0,0.0000,0,0,999.000,0.0,99.0
2015,5,5,21,0,?9?9?9?9E0?9?9?9?9*9?9?9?9?9*9?9*9*9?9*_?9?9*9?9*9,23.3,15.9,63,98090,0,1342,385,0,0,0,0,0,0,0,180,1.7,5,5,777.7,77777,9,999999999,0,0.0000,0,0,999.000,0.0,99.0
2015,5,5,22,0,?9?9?9?9E0?9?9?9?9*9?9?9?9?9*9?9*9*9?9*_?9?9*9?9*9,22.9,16.0,65,98090,0,1342,383,0,0,0,0,0,0,0,180,1.4,5,5,777.7,77777,9,999999999,0,0.0000,0,0,999.000,0.0,99.0
2015,5,5,23,0,?9?9?9?9E0?9?9?9?9*9?9?9?9?9*9?9*9*9?9*_?9?9*9?9*9,22.4,16.0,66,98090,0,1342,381,0,0,0,0,0,0,0,180,1.4,5,5,777.7,77777,9,999999999,0,0.0000,0,0,999.000,0.0,99.0
2015,5,5,24,0,?9?9?9?9E0?9?9?9?9*9?9?9?9?9*9?9*9*9?9*_?9?9*9?9*9,22.0,18.3,77,98090,0,1342,381,0,0,0,0,0,0,0,180,2.1,5,5,777.7,77777,9,999999999,0,0.0000,0,0,999.000,0.0,99.0
2015,5,6,1,0,?9?9?9?9E0?9?9?9?9*9?9?9?9?9*9?9*9*9?9*_?9?9*9?9*9,21.7,18.3,87,98090,0,1342,383,0,0,0,0,0,0,0,180,1.9,6,6,777.7,77777,9,999999999,1,0.0000,0,0,999.000,1.8,99.0
2015,5,6,2,0,?9?9?9?9E0?9?9?9?9*9?9?9?9?9*9?9*9*9?9*_?9?9*9?9*9,21.5,18.4,84,98090,0,1342,382,0,0,0,0,0,0,0,180,1.9,6,6,777.7,77777,9,999999999,0,0.0000,0,0,999.000,0.1,99.0
2015,5,6,3,0,?9?9?9?9E0?9?9?9?9*9?9?9?9?9*9?9*9*9?9*_?9?9*9?9*9,21.3,18.4,85,98090,0,1342,381,0,0,0,0,0,0,0,180,1.9,6,6,777.7,77777,9,999999999,0,0.0000,0,0,999.000,0.0,99.0
2015,5,6,4,0,?9?9?9?9E0?9?9?9?9*9?9?9?9?9*9?9*9*9?9*_?9?9*9?9*9,21.1,18.5,86,98090,0,1342,380,0,0,0,0,0,0,0,180,1.9,6,6,777.7,77777,9,999999999,0,0.0000,0,0,999.000,0.0,99.0
2015,5,6,5,0,?9?9?9?9E0?9?9?9?9*9?9?9?9?9*9?9*9*9?9*_?9?9*9?9*9,20.8,18.5,88,98090,0,1342,379,0,0,0,0,0,0,0,180,1.9,6,6,777.7,77777,9,999999999,0,0.0000,0,0,999.000,0.0,99.0
2015,5,6,6,0,?9?9?9?9E0?9?9?9?9*9?9?9?9?9*9?9*9*9?9*_?9?9*9?9*9,20.6,18.6,84,98090,0,1342,378,0,0,0,0,0,0,0,180,1.9,6,6,777.7,77777,9,999999999,0,0.0000,0,0,999.000,0.0,99.0
2015,5,6,7,0,?9?9?9?9E0?9?9?9?9*9?9?9?9?9*9?9*9*9?9*_?9?9*9?9*9,20.5,18.6,89,98090,107,1342,377,0,0,0,0,0,0,0,180,1.9,6,6,777.7,77777,9,999999999,0,0.0000,0,0,999.000,0.0,99.0
2015,5,6,8,0,?9?9?9?9E0?9?9?9?9*9?9?9?9?9*9?9*9*9?9*_?9?9*9?9*9,20.4,18.6,86,98090,399,1342,377,125,74,103,14994,7016,11333,110,180,1.9,6,6,777.7,77777,9,999999999,0,0.0000,0,0,999.000,0.0,99.0
2015,5,6,9,0,?9?9?9?9E0?9?9?9?9*9?9?9?9?9*9?9*9*9?9*_?9?9*9?9*9,22.6,18.1,73,98090,658,1342,363,366,342,199,43940,32515,21836,129,180,1.9,0,0,777.7,77777,9,999999999,0,0.0000,0,0,999.000,0.0,99.0
2015,5,6,10,0,?9?9?9?9E0?9?9?9?9*9?9?9?9?9*9?9*9*9?9*_?9?9*9?9*9,23.7,17.9,68,98090,862,1342,368,580,623,179,69559,59218,19709,89,180,2.1,0,0,777.7,77777,9,999999999,0,0.0000,0,0,999.000,0.0,99.0
2015,5,6,11,0,?9?9?9?9E0?9?9?9?9*9?9?9?9?9*9?9*9*9?9*_?9?9*9?9*9,24.6,17.7,64,98090,999,1342,372,736,806,135,88271,76598,14904,58,180,2.8,0,0,777.7,77777,9,999999999,0,0.0000,0,0,999.000,0.0,99.0
2015,5,6,12,0,?9?9?9?9E0?9?9?9?9*9?9?9?9?9*9?9*9*9?9*_?9?9*9?9*9,25.3,17.5,61,98090,1058,1342,375,828,719,262,99395,68292,28779,106,180,3.5,0,0,777.7,77777,9,999999999,0,0.0000,0,0,999.000,0.0,99.0
2015,5,6,13,0,?9?9?9?9E0?9?9?9?9*9?9?9?9?9*9?9*9*9?9*_?9?9*9?9*9,25.8,17.4,59,98090,1035,1342,378,847,763,258,101645,72524,28386,106,180,4.5,0,0,777.7,77777,9,999999999,0,0.0000,0,0,999.000,0.0,99.0
2015,5,6,14,0,?9?9?9?9E0?9?9?9?9*9?9?9?9?9*9?9*9*9?9*_?9?9*9?9*9,26.1,17.3,58,98090,933,1342,379,785,817,218,94234,77569,23946,100,180,5.4,0,0,777.7,77777,9,999999999,0,0.0000,0,0,999.000,0.0,99.0
2015,5,6,15,0,?9?9?9?9E0?9?9?9?9*9?9?9?9?9*9?9*9*9?9*_?9?9*9?9*9,26.1,17.3,58,98090,758,1342,379,654,834,183,78433,79217,20133,103,180,5.6,0,0,777.7,77777,9,999999999,0,0.0000,0,0,999.000,0.0,99.0
2015,5,6,16,0,?9?9?9?9E0?9?9?9?9*9?9?9?9?9*9?9*9*9?9*_?9?9*9?9*9,25.8,17.4,59,98090,521,1342,378,461,755,168,55297,71741,18455,138,180,5.1,0,0,777.7,77777,9,999999999,0,0.0000,0,0,999.000,0.0,99.0
2015,5,6,17,0,?9?9?9?9E0?9?9?9?9*9?9?9?9?9*9?9*9*9?9*_?9?9*9?9*9,25.2,17.5,61,98090,241,1342,394,229,521,136,27482,49471,14981,243,180,4.7,4,4,777.7,77777,9,999999999,0,0.0000,0,0,999.000,0.0,99.0
2015,5,6,18,0,?9?9?9?9E0?9?9?9?9*9?9?9?9?9*9?9*9*9?9*_?9?9*9?9*9,24.8,17.6,63,98090,0,1342,392,16,0,0,1921,0,0,0,180,3.6,4,4,777.7,77777,9,999999999,0,0.0000,0,0,999.000,0.0,99.0
2015,5,6,19,0,?9?9?9?9E0?9?9?9?9*9?9?9?9?9*9?9*9*9?9*_?9?9*9?9*9,24.2,17.8,66,98090,0,1342,392,0,0,0,0,0,0,0,180,2.7,5,5,777.7,77777,9,999999999,0,0.0000,0,0,999.000,0.0,99.0
2015,5,6,20,0,?9?9?9?9E0?9?9?9?9*9?9?9?9?9*9?9*9*9?9*_?9?9*9?9*9,23.7,17.9,68,98090,0,1342,390,0,0,0,0,0,0,0,180,2.0,5,5,777.7,77777,9,999999999,0,0.0000,0,0,999.000,0.0,99.0
2015,5,6,21,0,?9?9?9?9E0?9?9?9?9*9?9?9?9?9*9?9*9*9?9*_?9?9*9?9*9,23.2,18.0,70,98090,0,1342,387,0,0,0,0,0,0,0,180,1.9,5,5,777.7,77777,9,999999999,0,0.0000,0,0,999.000,0.0,99.0
2015,5,6,22,0,?9?9?9?9E0?9?9?9?9*9?9?9?9?9*9?9*9*9?9*_?9?9*9?9*9,22.7,18.1,73,98090,0,1342,385,0,0,0,0,0,0,0,180,1.9,5,5,777.7,77777,9,999999999,0,0.0000,0,0,999.000,0.0,99.0
2015,5,6,23,0,?9?9?9?9E0?9?9?9?9*9?9?9?9?9*9?9*9*9?9*_?9?9*9?9*9,22.2,18.2,75,98090,0,1342,386,0,0,0,0,0,0,0,180,1.9,6,6,777.7,77777,9,999999999,0,0.0000,0,0,999.000,0.0,99.0
2015,5,6,24,0,?9?9?9?9E0?9?9?9?9*9?9?9?9?9*9?9*9*9?9*_?9?9*9?9*9,21.7,18.8,78,98090,0,1342,384,0,0,0,0,0,0,0,180,1.6,6,6,777.7,77777,9,999999999,0,0.0000,0,0,999.000,0.0,99.0
2015,5,7,1,0,?9?9?9?9E0?9?9?9?9*9?9?9?9?9*9?9*9*9?9*_?9?9*9?9*9,21.5,18.7,79,98090,0,1342,382,0,0,0,0,0,0,0,180,1.6,6,6,777.7,77777,9,999999999,0,0.0000,0,0,999.000,0.0,99.0
2015,5,7,2,0,?9?9?9?9E0?9?9?9?9*9?9?9?9?9*9?9*9*9?9*_?9?9*9?9*9,21.2,18.6,79,98090,0,1342,381,0,0,0,0,0,0,0,180,1.6,6,6,777.7,77777,9,999999999,0,0.0000,0,0,999.000,0.0,99.0
2015,5,7,3,0,?9?9?9?9E0?9?9?9?9*9?9?9?9?9*9?9*9*9?9*_?9?9*9?9*9,21.0,18.5,80,98090,0,1342,384,0,0,0,0,0,0,0,180,1.6,7,7,777.7,77777,9,999999999,0,0.0000,0,0,999.000,0.0,99.0
2015,5,7,4,0,?9?9?9?9E0?9?9?9?9*9?9?9?9?9*9?9*9*9?9*_?9?9*9?9*9,20.7,18.5,84,98090,0,1341,383,0,0,0,0,0,0,0,180,1.6,7,7,777.7,77777,9,999999999,0,0.0000,0,0,999.000,0.0,99.0
2015,5,7,5,0,?9?9?9?9E0?9?9?9?9*9?9?9?9?9*9?9*9*9?9*_?9?9*9?9*9,20.5,18.4,81,98090,0,1341,381,0,0,0,0,0,0,0,180,1.6,7,7,777.7,77777,9,999999999,0,0.0000,0,0,999.000,0.0,99.0
2015,5,7,6,0,?9?9?9?9E0?9?9?9?9*9?9?9?9?9*9?9*9*9?9*_?9?9*9?9*9,20.3,18.3,85,98090,0,1341,380,0,0,0,0,0,0,0,180,1.6,7,7,777.7,77777,9,999999999,0,0.0000,0,0,999.000,0.0,99.0
2015,5,7,7,0,?9?9?9?9E0?9?9?9?9*9?9?9?9?9*9?9*9*9?9*_?9?9*9?9*9,20.1,18.3,86,98090,105,1341,385,0,0,0,0,0,0,0,180,1.6,8,8,777.7,77777,9,999999999,0,0.0000,0,0,999.000,0.0,99.0
2015,5,7,8,0,?9?9?9?9E0?9?9?9?9*9?9?9?9?9*9?9*9*9?9*_?9?9*9?9*9,19.9,18.2,90,98090,396,1341,384,73,0,73,8790,0,8058,79,180,1.6,8,8,777.7,77777,9,999999999,2,0.0000,0,0,999.000,2.8,99.0
2015,5,7,9,0,?9?9?9?9E0?9?9?9?9*9?9?9?9?9*9?9*9*9?9*_?9?9*9?9*9,22.4,19.0,77,98090,654,1341,388,285,166,204,34207,15772,22453,133,180,1.6,6,6,777.7,77777,9,999999999,0,0.0000,0,0,999.000,0.0,99.0
2015,5,7,10,0,?9?9?9?9E0?9?9?9?9*9?9?9?9?9*9?9*9*9?9*_?9?9*9?9*9,23.1,19.1,75,98090,858,1341,402,321,53,287,38573,5040,31625,143,180,1.8,8,8,777.7,77777,9,999999999,0,0.0000,0,0,999.000,0.0,99.0
2015,5,7,11,0,?9?9?9?9E0?9?9?9?9*9?9?9?9?9*9?9*9*9?9*_?9?9*9?9*9,23.9,19.4,73,98090,994,1341,401,461,140,357,55333,13306,39299,153,180,2.8,7,7,777.7,77777,9,999999999,0,0.0000,0,0,999.000,0.0,99.0
2015,5,7,12,0,?9?9?9?9E0?9?9?9?9*9?9?9?9?9*9?9*9*9?9*_?9?9*9?9*9,24.9,19.6,71,98090,1053,1341,395,640,389,335,76799,36936,36813,136,180,4.0,4,4,777.7,77777,9,999999999,0,0.0000,0,0,999.000,0.0,99.0
2015,5,7,13,0,?9?9?9?9E0?9?9?9?9*9?9?9?9?9*9?9*9*9?9*_?9?9*9?9*9,26.0,19.9,69,98090,1031,1341,382,841,571,402,100870,54225,44213,166,180,4.9,0,0,777.7,77777,9,999999999,0,0.0000,0,0,999.000,0.0,99.0
2015,5,7,14,0,?9?9?9?9E0?9?9?9?9*9?9?9?9?9*9?9*9*9?9*_?9?9*9?9*9,26.0,19.9,69,98090,928,1341,413,464,210,319,55733,19940,35108,147,180,5.4,7,7,777.7,77777,9,999999999,0,0.0000,0,0,999.000,0.0,99.0
2015,5,7,15,0,?9?9?9?9E0?9?9?9?9*9?9?9?9?9*9?9*9*9?9*_?9?9*9?9*9,25.9,19.9,69,98090,753,1341,412,396,310,222,47532,29490,24398,126,180,5.4,7,7,777.7,77777,9,999999999,0,0.0000,0,0,999.000,0.0,99.0
2015,5,7,16,0,?9?9?9?9E0?9?9?9?9*9?9?9?9?9*9?9*9*9?9*_?9?9*9?9*9,25.4,19.8,73,98090,518,1341,416,233,222,148,28003,21130,16240,122,180,5.0,8,8,777.7,77777,9,999999999,0,0.0000,0,0,999.000,0.1,99.0
2015,5,7,17,0,?9?9?9?9E0?9?9?9?9*9?9?9?9?9*9?9*9*9?9*_?9?9*9?9*9,24.8,19.6,71,98090,238,1341,412,146,355,84,17558,33730,9225,152,180,3.5,8,8,777.7,77777,9,999999999,0,0.0000,0,0,999.000,0.0,99.0
2015,5,7,18,0,?9?9?9?9E0?9?9?9?9*9?9?9?9?9*9?9*9*9?9*_?9?9*9?9*9,24.3,19.5,76,98090,0,1341,409,11,0,0,1340,0,0,0,180,2.7,8,8,777.7,77777,9,999999999,0,0.0000,0,0,999.000,0.1,99.0
2015,5,7,19,0,?9?9?9?9E0?9?9?9?9*9?9?9?9?9*9?9*9*9?9*_?9?9*9?9*9,23.8,19.3,73,98090,0,1341,407,0,0,0,0,0,0,0,180,2.0,8,8,777.7,77777,9,999999999,0,0.0000,0,0,999.000,0.0,99.0
2015,5,7,20,0,?9?9?9?9E0?9?9?9?9*9?9?9?9?9*9?9*9*9?9*_?9?9*9?9*9,23.4,19.2,74,98090,0,1341,404,0,0,0,0,0,0,0,180,1.6,8,8,777.7,77777,9,999999999,0,0.0000,0,0,999.000,0.0,99.0
2015,5,7,21,0,?9?9?9?9E0?9?9?9?9*9?9?9?9?9*9?9*9*9?9*_?9?9*9?9*9,22.9,19.1,75,98090,0,1341,401,0,0,0,0,0,0,0,180,1.6,8,8,777.7,77777,9,999999999,0,0.0000,0,0,999.000,0.0,99.0
2015,5,7,22,0,?9?9?9?9E0?9?9?9?9*9?9?9?9?9*9?9*9*9?9*_?9?9*9?9*9,22.4,19.0,76,98090,0,1341,398,0,0,0,0,0,0,0,180,1.6,8,8,777.7,77777,9,999999999,0,0.0000,0,0,999.000,0.0,99.0
2015,5,7,23,0,?9?9?9?9E0?9?9?9?9*9?9?9?9?9*9?9*9*9?9*_?9?9*9?9*9,22.0,18.8,78,98090,0,1341,396,0,0,0,0,0,0,0,180,1.6,8,8,777.7,77777,9,999999999,0,0.0000,0,0,999.000,0.0,99.0
2015,5,7,24,0,?9?9?9?9E0?9?9?9?9*9?9?9?9?9*9?9*9*9?9*_?9?9*9?9*9,21.5,18.7,81,98090,0,1341,393,0,0,0,0,0,0,0,180,1.7,8,8,777.7,77777,9,999999999,0,0.0000,0,0,999.000,0.0,99.0
2015,5,8,1,0,?9?9?9?9E0?9?9?9?9*9?9?9?9?9*9?9*9*9?9*_?9?9*9?9*9,21.3,18.6,85,98090,0,1341,392,0,0,0,0,0,0,0,180,1.7,8,8,777.7,77777,9,999999999,0,0.0000,0,0,999.000,0.0,99.0
2015,5,8,2,0,?9?9?9?9E0?9?9?9?9*9?9?9?9?9*9?9*9*9?9*_?9?9*9?9*9,21.0,18.5,86,98090,0,1341,390,0,0,0,0,0,0,0,180,1.7,8,8,777.7,77777,9,999999999,0,0.0000,0,0,999.000,0.9,99.0
2015,5,8,3,0,?9?9?9?9E0?9?9?9?9*9?9?9?9?9*9?9*9*9?9*_?9?9*9?9*9,20.8,18.4,86,98090,0,1341,389,0,0,0,0,0,0,0,180,1.7,8,8,777.7,77777,9,999999999,0,0.0000,0,0,999.000,0.0,99.0
2015,5,8,4,0,?9?9?9?9E0?9?9?9?9*9?9?9?9?9*9?9*9*9?9*_?9?9*9?9*9,20.6,18.3,83,98090,0,1340,388,0,0,0,0,0,0,0,180,1.7,8,8,777.7,77777,9,999999999,0,0.0000,0,0,999.000,0.0,99.0
2015,5,8,5,0,?9?9?9?9E0?9?9?9?9*9?9?9?9?9*9?9*9*9?9*_?9?9*9?9*9,20.3,18.2,84,98090,0,1340,386,0,0,0,0,0,0,0,180,1.7,8,8,777.7,77777,9,999999999,0,0.0000,0,0,999.000,0.0,99.0
2015,5,8,6,0,?9?9?9?9E0?9?9?9?9*9?9?9?9?9*9?9*9*9?9*_?9?9*9?9*9,20.1,18.1,84,98090,0,1340,385,0,0,0,0,0,0,0,180,1.7,8,8,777.7,77777,9,999999999,0,0.0000,0,0,999.000,0.0,99.0
2015,5,8,7,0,?9?9?9?9E0?9?9?9?9*9?9?9?9?9*9?9*9*9?9*_?9?9*9?9*9,20.0,18.1,84,98090,102,1340,384,0,0,0,0,0,0,0,180,1.7,8,8,777.7,77777,9,999999999,0,0.0000,0,0,999.000,0.0,99.0
2015,5,8,8,0,?9?9?9?9E0?9?9?9?9*9?9?9?9?9*9?9*9*9?9*_?9?9*9?9*9,19.8,18.0,89,98090,394,1340,384,96,0,96,11557,0,10594,105,180,1.7,8,8,777.7,77777,9,999999999,0,0.0000,0,0,999.000,0.0,99.0
2015,5,8,9,0,?9?9?9?9E0?9?9?9?9*9?9?9?9?9*9?9*9*9?9*_?9?9*9?9*9,22.2,19.0,79,98090,651,1340,383,296,175,211,35546,16595,23262,139,180,1.7,5,5,777.7,77777,9,999999999,0,0.0000,0,0,999.000,0.0,99.0
2015,5,8,10,0,?9?9?9?9E0?9?9?9?9*9?9?9?9?9*9?9*9*9?9*_?9?9*9?9*9,23.2,19.4,77,98090,854,1340,389,446,249,287,53482,23614,31601,144,180,1.9,5,5,777.7,77777,9,999999999,0,0.0000,0,0,999.000,0.0,99.0
2015,5,8,11,0,?9?9?9?9E0?9?9?9?9*9?9?9?9?9*9?9*9*9?9*_?9?9*9?9*9,24.3,19.8,74,98090,990,1340,389,617,480,263,74074,45622,28884,113,180,2.9,3,3,777.7,77777,9,999999999,0,0.0000,0,0,999.000,0.0,99.0
2015,5,8,12,0,?9?9?9?9E0?9?9?9?9*9?9?9?9?9*9?9*9*9?9*_?9?9*9?9*9,25.0,20.0,73,98090,1049,1340,393,683,557,247,81941,52920,27173,101,180,3.6,3,3,777.7,77777,9,999999999,0,0.0000,0,0,999.000,0.0,99.0
2015,5,8,13,0,?9?9?9?9E0?9?9?9?9*9?9?9?9?9*9?9*9*9?9*_?9?9*9?9*9,25.6,20.2,72,98090,1026,1340,393,704,659,200,84500,62605,21967,83,180,3.9,2,2,777.7,77777,9,999999999,0,0.0000,0,0,999.000,0.0,99.0
2015,5,8,14,0,?9?9?9?9E0?9?9?9?9*9?9?9?9?9*9?9*9*9?9*_?9?9*9?9*9,25.9,20.3,71,98090,924,1340,401,610,608,192,73258,57735,21078,88,180,4.5,4,4,777.7,77777,9,999999999,0,0.0000,0,0,999.000,0.0,99.0
2015,5,8,15,0,?9?9?9?9E0?9?9?9?9*9?9?9?9?9*9?9*9*9?9*_?9?9*9?9*9,25.9,20.4,71,98090,749,1340,401,525,751,105,62970,71359,11560,60,180,4.5,4,4,777.7,77777,9,999999999,0,0.0000,0,0,999.000,0.0,99.0
2015,5,8,16,0,?9?9?9?9E0?9?9?9?9*9?9?9?9?9*9?9*9*9?9*_?9?9*9?9*9,25.6,20.2,72,98090,514,1340,403,360,682,99,43190,64827,10856,82,180,4.4,5,5,777.7,77777,9,999999999,0,0.0000,0,0,999.000,0.0,99.0
2015,5,8,17,0,?9?9?9?9E0?9?9?9?9*9?9?9?9?9*9?9*9*9?9*_?9?9*9?9*9,25.0,20.0,73,98090,235,1340,403,192,317,137,23028,30072,15064,251,180,4.2,6,6,777.7,77777,9,999999999,0,0.0000,0,0,999.000,0.0,99.0
2015,5,8,18,0,?9?9?9?9E0?9?9?9?9*9?9?9?9?9*9?9*9*9?9*_?9?9*9?9*9,24.5,19.8,74,98090,0,1340,400,16,0,0,1933,0,0,0,180,3.4,6,6,777.7,77777,9,999999999,0,0.0000,0,0,999.000,0.0,99.0
2015,5,8,19,0,?9?9?9?9E0?9?9?9?9*9?9?9?9?9*9?9*9*9?9*_?9?9*9?9*9,24.0,19.7,75,98090,0,1340,397,0,0,0,0,0,0,0,180,2.6,6,6,777.7,77777,9,999999999,0,0.0000,0,0,999.000,0.0,99.0
2015,5,8,20,0,?9?9?9?9E0?9?9?9?9*9?9?9?9?9*9?9*9*9?9*_?9?9*9?9*9,23.6,19.5,76,98090,0,1340,394,0,0,0,0,0,0,0,180,1.7,6,6,777.7,77777,9,999999999,0,0.0000,0,0,999.000,0.0,99.0
2015,5,8,21,0,?9?9?9?9E0?9?9?9?9*9?9?9?9?9*9?9*9*9?9*_?9?9*9?9*9,23.1,19.3,77,98090,0,1340,392,0,0,0,0,0,0,0,180,1.7,6,6,777.7,77777,9,999999999,0,0.0000,0,0,999.000,0.0,99.0
2015,5,8,22,0,?9?9?9?9E0?9?9?9?9*9?9?9?9?9*9?9*9*9?9*_?9?9*9?9*9,22.6,19.1,78,98090,0,1340,389,0,0,0,0,0,0,0,180,1.7,6,6,777.7,77777,9,999999999,0,0.0000,0,0,999.000,0.0,99.0
2015,5,8,23,0,?9?9?9?9E0?9?9?9?9*9?9?9?9?9*9?9*9*9?9*_?9?9*9?9*9,22.2,18.9,79,98090,0,1340,386,0,0,0,0,0,0,0,180,1.7,6,6,777.7,77777,9,999999999,0,0.0000,0,0,999.000,0.0,99.0
2015,5,8,24,0,?9?9?9?9E0?9?9?9?9*9?9?9?9?9*9?9*9*9?9*_?9?9*9?9*9,21.7,18.8,83,98090,0,1340,384,0,0,0,0,0,0,0,180,1.7,6,6,777.7,77777,9,999999999,0,0.0000,0,0,999.000,0.0,99.0
2015,5,9,1,0,?9?9?9?9E0?9?9?9?9*9?9?9?9?9*9?9*9*9?9*_?9?9*9?9*9,21.5,18.7,84,98090,0,1340,382,0,0,0,0,0,0,0,180,1.7,6,6,777.7,77777,9,999999999,0,0.0000,0,0,999.000,0.0,99.0
2015,5,9,2,0,?9?9?9?9E0?9?9?9?9*9?9?9?9?9*9?9*9*9?9*_?9?9*9?9*9,21.2,18.7,90,98090,0,1340,381,0,0,0,0,0,0,0,180,1.7,6,6,777.7,77777,9,999999999,0,0.0000,0,0,999.000,0.0,99.0
2015,5,9,3,0,?9?9?9?9E0?9?9?9?9*9?9?9?9?9*9?9*9*9?9*_?9?9*9?9*9,21.0,18.7,86,98090,0,1340,380,0,0,0,0,0,0,0,180,1.7,6,6,777.7,77777,9,999999999,0,0.0000,0,0,999.000,0.0,99.0
2015,5,9,4,0,?9?9?9?9E0?9?9?9?9*9?9?9?9?9*9?9*9*9?9*_?9?9*9?9*9,20.8,18.6,87,98090,0,1340,379,0,0,0,0,0,0,0,180,1.7,6,6,777.7,77777,9,999999999,0,0.0000,0,0,999.000,0.0,99.0
2015,5,9,5,0,?9?9?9?9E0?9?9?9?9*9?9?9?9?9*9?9*9*9?9*_?9?9*9?9*9,20.5,18.6,88,98090,0,1340,377,0,0,0,0,0,0,0,180,1.7,6,6,777.7,77777,9,999999999,0,0.0000,0,0,999.000,0.0,99.0
2015,5,9,6,0,?9?9?9?9E0?9?9?9?9*9?9?9?9?9*9?9*9*9?9*_?9?9*9?9*9,20.4,18.6,89,98090,0,1340,377,0,0,0,0,0,0,0,180,1.7,6,6,777.7,77777,9,999999999,0,0.0000,0,0,999.000,0.0,99.0
2015,5,9,7,0,?9?9?9?9E0?9?9?9?9*9?9?9?9?9*9?9*9*9?9*_?9?9*9?9*9,20.2,18.5,90,98090,100,1340,376,0,0,0,0,0,0,0,180,1.7,6,6,777.7,77777,9,999999999,0,0.0000,0,0,999.000,0.0,99.0
2015,5,9,8,0,?9?9?9?9E0?9?9?9?9*9?9?9?9?9*9?9*9*9?9*_?9?9*9?9*9,20.0,18.5,90,98090,391,1340,375,117,63,99,14086,5958,10906,109,180,1.7,6,6,777.7,77777,9,999999999,0,0.0000,0,0,999.000,0.0,99.0
2015,5,9,9,0,?9?9?9?9E0?9?9?9?9*9?9?9?9?9*9?9*9*9?9*_?9?9*9?9*9,22.7,18.9,79,98090,647,1340,386,306,203,208,36736,19260,22907,137,180,1.7,5,5,777.7,77777,9,999999999,0,0.0000,0,0,999.000,0.0,99.0
2015,5,9,10,0,?9?9?9?9E0?9?9?9?9*9?9?9?9?9*9?9*9*9?9*_?9?9*9?9*9,23.6,19.0,75,98090,851,1340,390,425,141,335,50988,13429,36871,168,180,1.7,5,5,777.7,77777,9,999999999,0,0.0000,0,0,999.000,0.0,99.0
2015,5,9,11,0,?9?9?9?9E0?9?9?9?9*9?9?9?9?9*9?9*9*9?9*_?9?9*9?9*9,24.1,19.1,73,98090,986,1340,402,465,151,354,55816,14327,38958,153,180,1.8,7,7,777.7,77777,9,999999999,0,0.0000,0,0,999.000,0.0,99.0
2015,5,9,12,0,?9?9?9?9E0?9?9?9?9*9?9?9?9?9*9?9*9*9?9*_?9?9*9?9*9,25.0,19.3,70,98090,1044,1340,392,657,473,288,78862,44943,31728,118,180,2.5,3,3,777.7,77777,9,999999999,0,0.0000,0,0,999.000,0.0,99.0
2015,5,9,13,0,?9?9?9?9E0?9?9?9?9*9?9?9?9?9*9?9*9*9?9*_?9?9*9?9*9,25.5,19.3,68,98090,1022,1340,398,656,523,257,78708,49659,28302,107,180,3.4,4,4,777.7,77777,9,999999999,0,0.0000,0,0,999.000,0.0,99.0
2015,5,9,14,0,?9?9?9?9E0?9?9?9?9*9?9?9?9?9*9?9*9*9?9*_?9?9*9?9*9,25.9,19.4,67,98090,920,1340,393,659,768,131,79022,72970,14448,61,180,4.0,2,2,777.7,77777,9,999999999,0,0.0000,0,0,999.000,0.0,99.0
2015,5,9,15,0,?9?9?9?9E0?9?9?9?9*9?9?9?9?9*9?9*9*9?9*_?9?9*9?9*9,26.0,19.4,67,98090,745,1340,401,524,835,60,62911,79312,6613,34,180,4.8,4,4,777.7,77777,9,999999999,0,0.0000,0,0,999.000,0.0,99.0
2015,5,9,16,0,?9?9?9?9E0?9?9?9?9*9?9?9?9?9*9?9*9*9?9*_?9?9*9?9*9,25.6,19.4,68,98090,510,1340,405,322,580,101,38608,55121,11118,85,180,4.4,6,6,777.7,77777,9,999999999,0,0.0000,0,0,999.000,0.0,99.0
2015,5,9,17,0,?9?9?9?9E0?9?9?9?9*9?9?9?9?9*9?9*9*9?9*_?9?9*9?9*9,25.0,19.3,70,98090,232,1340,406,157,322,102,18857,30607,11212,189,180,3.9,7,7,777.7,77777,9,999999999,0,0.0000,0,0,999.000,0.0,99.0
2015,5,9,18,0,?9?9?9?9E0?9?9?9?9*9?9?9?9?9*9?9*9*9?9*_?9?9*9?9*9,24.5,19.2,72,98090,0,1340,404,8,0,0,932,0,0,0,180,4.0,7,7,777.7,77777,9,999999999,0,0.0000,0,0,999.000,0.0,99.0
2015,5,9,19,0,?9?9?9?9E0?9?9?9?9*9?9?9?9?9*9?9*9*9?9*_?9?9*9?9*9,24.1,19.1,73,98090,0,1340,401,0,0,0,0,0,0,0,180,3.2,7,7,777.7,77777,9,999999999,0,0.0000,0,0,999.000,0.0,99.0
2015,5,9,20,0,?9?9?9?9E0?9?9?9?9*9?9?9?9?9*9?9*9*9?9*_?9?9*9?9*9,23.7,19.1,75,98090,0,1340,399,0,0,0,0,0,0,0,180,2.7,7,7,777.7,77777,9,999999999,0,0.0000,0,0,999.000,0.0,99.0
2015,5,9,21,0,?9?9?9?9E0?9?9?9?9*9?9?9?9?9*9?9*9*9?9*_?9?9*9?9*9,23.2,19.0,82,98090,0,1340,397,0,0,0,0,0,0,0,180,2.1,7,7,777.7,77777,9,999999999,0,0.0000,0,0,999.000,0.0,99.0
2015,5,9,22,0,?9?9?9?9E0?9?9?9?9*9?9?9?9?9*9?9*9*9?9*_?9?9*9?9*9,22.8,18.9,83,98090,0,1340,394,0,0,0,0,0,0,0,180,1.7,7,7,777.7,77777,9,999999999,0,0.0000,0,0,999.000,0.0,99.0
2015,5,9,23,0,?9?9?9?9E0?9?9?9?9*9?9?9?9?9*9?9*9*9?9*_?9?9*9?9*9,22.4,18.9,85,98090,0,1340,392,0,0,0,0,0,0,0,180,1.7,7,7,777.7,77777,9,999999999,0,0.0000,0,0,999.000,0.9,99.0
2015,5,9,24,0,?9?9?9?9E0?9?9?9?9*9?9?9?9?9*9?9*9*9?9*_?9?9*9?9*9,21.9,18.7,79,98090,0,1340,389,0,0,0,0,0,0,0,180,1.6,7,7,777.7,77777,9,999999999,0,0.0000,0,0,999.000,0.0,99.0
2015,5,10,1,0,?9?9?9?9E0?9?9?9?9*9?9?9?9?9*9?9*9*9?9*_?9?9*9?9*9,21.7,18.7,89,98090,0,1340,394,0,0,0,0,0,0,0,180,1.6,8,8,777.7,77777,9,999999999,4,0.0000,0,0,999.000,4.5,99.0
2015,5,10,2,0,?9?9?9?9E0?9?9?9?9*9?9?9?9?9*9?9*9*9?9*_?9?9*9?9*9,21.5,18.7,85,98090,0,1340,393,0,0,0,0,0,0,0,180,1.6,8,8,777.7,77777,9,999999999,0,0.0000,0,0,999.000,0.0,99.0
2015,5,10,3,0,?9?9?9?9E0?9?9?9?9*9?9?9?9?9*9?9*9*9?9*_?9?9*9?9*9,21.3,18.7,86,98090,0,1340,392,0,0,0,0,0,0,0,180,1.6,8,8,777.7,77777,9,999999999,0,0.0000,0,0,999.000,0.1,99.0
2015,5,10,4,0,?9?9?9?9E0?9?9?9?9*9?9?9?9?9*9?9*9*9?9*_?9?9*9?9*9,21.0,18.7,87,98090,0,1339,391,0,0,0,0,0,0,0,180,1.6,8,8,777.7,77777,9,999999999,0,0.0000,0,0,999.000,0.0,99.0
2015,5,10,5,0,?9?9?9?9E0?9?9?9?9*9?9?9?9?9*9?9*9*9?9*_?9?9*9?9*9,20.8,18.7,88,98090,0,1339,390,0,0,0,0,0,0,0,180,1.6,8,8,777.7,77777,9,999999999,0,0.0000,0,0,999.000,0.2,99.0
2015,5,10,6,0,?9?9?9?9E0?9?9?9?9*9?9?9?9?9*9?9*9*9?9*_?9?9*9?9*9,20.6,18.7,89,98090,0,1339,389,0,0,0,0,0,0,0,180,1.6,8,8,777.7,77777,9,999999999,0,0.0000,0,0,999.000,0.1,99.0
2015,5,10,7,0,?9?9?9?9E0?9?9?9?9*9?9?9?9?9*9?9*9*9?9*_?9?9*9?9*9,20.5,18.7,90,98090,98,1339,388,0,0,0,0,0,0,0,180,1.6,8,8,777.7,77777,9,999999999,0,0.0000,0,0,999.000,0.0,99.0
2015,5,10,8,0,?9?9?9?9E0?9?9?9?9*9?9?9?9?9*9?9*9*9?9*_?9?9*9?9*9,20.4,18.7,86,98090,388,1339,387,66,0,66,7968,0,7304,73,180,1.6,8,8,777.7,77777,9,999999999,0,0.0000,0,0,999.000,0.0,99.0
2015,5,10,9,0,?9?9?9?9E0?9?9?9?9*9?9?9?9?9*9?9*9*9?9*_?9?9*9?9*9,22.4,18.8,77,98090,644,1339,398,200,39,181,23993,3736,19915,120,180,1.6,8,8,777.7,77777,9,999999999,0,0.0000,0,0,999.000,0.0,99.0
2015,5,10,10,0,?9?9?9?9E0?9?9?9?9*9?9?9?9?9*9?9*9*9?9*_?9?9*9?9*9,23.4,18.8,73,98090,847,1339,404,319,59,281,38221,5576,30955,142,180,2.1,8,8,777.7,77777,9,999999999,0,0.0000,0,0,999.000,0.0,99.0
2015,5,10,11,0,?9?9?9?9E0?9?9?9?9*9?9?9?9?9*9?9*9*9?9*_?9?9*9?9*9,24.2,18.8,70,98090,982,1339,402,407,60,363,48836,5697,39932,158,180,2.6,7,7,777.7,77777,9,999999999,0,0.0000,0,0,999.000,0.0,99.0
2015,5,10,12,0,?9?9?9?9E0?9?9?9?9*9?9?9?9?9*9?9*9*9?9*_?9?9*9?9*9,24.9,18.8,68,98090,1040,1339,405,458,89,389,54940,8438,42774,159,180,3.2,7,7,777.7,77777,9,999999999,0,0.0000,0,0,999.000,0.0,99.0
2015,5,10,13,0,?9?9?9?9E0?9?9?9?9*9?9?9?9?9*9?9*9*9?9*_?9?9*9?9*9,25.3,18.9,67,98090,1017,1339,408,467,88,400,56066,8365,44037,168,180,3.7,7,7,777.7,77777,9,999999999,0,0.0000,0,0,999.000,0.0,99.0
2015,5,10,14,0,?9?9?9?9E0?9?9?9?9*9?9?9?9?9*9?9*9*9?9*_?9?9*9?9*9,25.6,18.9,66,98090,916,1339,409,434,109,360,52132,10386,39568,168,180,5.1,7,7,777.7,77777,9,999999999,0,0.0000,0,0,999.000,0.0,99.0
2015,5,10,15,0,?9?9?9?9E0?9?9?9?9*9?9?9?9?9*9?9*9*9?9*_?9?9*9?9*9,25.6,18.9,66,98090,741,1339,409,362,190,257,43433,18076,28233,148,180,4.9,7,7,777.7,77777,9,999999999,0,0.0000,0,0,999.000,0.0,99.0
2015,5,10,16,0,?9?9?9?9E0?9?9?9?9*9?9?9?9?9*9?9*9*9?9*_?9?9*9?9*9,25.4,18.9,67,98090,507,1339,415,256,312,138,30662,29630,15144,116,180,4.8,8,8,777.7,77777,9,999999999,0,0.0000,0,0,999.000,0.0,99.0
2015,5,10,17,0,?9?9?9?9E0?9?9?9?9*9?9?9?9?9*9?9*9*9?9*_?9?9*9?9*9,24.9,18.8,68,98090,229,1339,412,126,311,73,15073,29563,8025,137,180,4.0,8,8,777.7,77777,9,999999999,0,0.0000,0,0,999.000,0.0,99.0
2015,5,10,18,0,?9?9?9?9E0?9?9?9?9*9?9?9?9?9*9?9*9*9?9*_?9?9*9?9*9,24.4,18.8,70,98090,0,1339,409,8,0,0,914,0,0,0,180,3.5,8,8,777.7,77777,9,999999999,0,0.0000,0,0,999.000,0.0,99.0
2015,5,10,19,0,?9?9?9?9E0?9?9?9?9*9?9?9?9?9*9?9*9*9?9*_?9?9*9?9*9,24.0,18.8,71,98090,0,1339,407,0,0,0,0,0,0,0,180,2.4,8,8,777.7,77777,9,999999999,0,0.0000,0,0,999.000,0.0,99.0
2015,5,10,20,0,?9?9?9?9E0?9?9?9?9*9?9?9?9?9*9?9*9*9?9*_?9?9*9?9*9,23.6,18.8,73,98090,0,1339,405,0,0,0,0,0,0,0,180,2.0,8,8,777.7,77777,9,999999999,0,0.0000,0,0,999.000,0.0,99.0
2015,5,10,21,0,?9?9?9?9E0?9?9?9?9*9?9?9?9?9*9?9*9*9?9*_?9?9*9?9*9,23.2,18.8,74,98090,0,1339,396,0,0,0,0,0,0,0,180,1.6,7,7,777.7,77777,9,999999999,0,0.0000,0,0,999.000,0.0,99.0
2015,5,10,22,0,?9?9?9?9E0?9?9?9?9*9?9?9?9?9*9?9*9*9?9*_?9?9*9?9*9,22.8,18.8,76,98090,0,1339,394,0,0,0,0,0,0,0,180,1.6,7,7,777.7,77777,9,999999999,0,0.0000,0,0,999.000,0.0,99.0
2015,5,10,23,0,?9?9?9?9E0?9?9?9?9*9?9?9?9?9*9?9*9*9?9*_?9?9*9?9*9,22.4,18.7,77,98090,0,1339,392,0,0,0,0,0,0,0,180,1.6,7,7,777.7,77777,9,999999999,0,0.0000,0,0,999.000,0.0,99.0
2015,5,10,24,0,?9?9?9?9E0?9?9?9?9*9?9?9?9?9*9?9*9*9?9*_?9?9*9?9*9,21.9,18.4,84,98090,0,1339,389,0,0,0,0,0,0,0,180,1.4,7,7,777.7,77777,9,999999999,0,0.0000,0,0,999.000,0.0,99.0
2015,5,11,1,0,?9?9?9?9E0?9?9?9?9*9?9?9?9?9*9?9*9*9?9*_?9?9*9?9*9,21.7,18.5,90,98090,0,1339,388,0,0,0,0,0,0,0,180,1.4,7,7,777.7,77777,9,999999999,1,0.0000,0,0,999.000,1.8,99.0
2015,5,11,2,0,?9?9?9?9E0?9?9?9?9*9?9?9?9?9*9?9*9*9?9*_?9?9*9?9*9,21.5,18.6,87,98090,0,1339,387,0,0,0,0,0,0,0,180,1.4,7,7,777.7,77777,9,999999999,0,0.0000,0,0,999.000,0.1,99.0
2015,5,11,3,0,?9?9?9?9E0?9?9?9?9*9?9?9?9?9*9?9*9*9?9*_?9?9*9?9*9,21.3,18.7,88,98090,0,1339,386,0,0,0,0,0,0,0,180,1.4,7,7,777.7,77777,9,999999999,0,0.0000,0,0,999.000,0.0,99.0
2015,5,11,4,0,?9?9?9?9E0?9?9?9?9*9?9?9?9?9*9?9*9*9?9*_?9?9*9?9*9,21.1,18.8,90,98090,0,1338,385,0,0,0,0,0,0,0,180,1.4,7,7,777.7,77777,9,999999999,0,0.0000,0,0,999.000,0.0,99.0
2015,5,11,5,0,?9?9?9?9E0?9?9?9?9*9?9?9?9?9*9?9*9*9?9*_?9?9*9?9*9,20.9,18.9,91,98090,0,1338,380,0,0,0,0,0,0,0,180,1.4,6,6,777.7,77777,9,999999999,0,0.0000,0,0,999.000,0.0,99.0
2015,5,11,6,0,?9?9?9?9E0?9?9?9?9*9?9?9?9?9*9?9*9*9?9*_?9?9*9?9*9,20.7,19.0,88,98090,0,1338,379,0,0,0,0,0,0,0,180,1.4,6,6,777.7,77777,9,999999999,0,0.0000,0,0,999.000,0.0,99.0
2015,5,11,7,0,?9?9?9?9E0?9?9?9?9*9?9?9?9?9*9?9*9*9?9*_?9?9*9?9*9,20.6,19.0,89,98090,96,1338,378,0,0,0,0,0,0,0,180,1.4,6,6,777.7,77777,9,999999999,0,0.0000,0,0,999.000,0.0,99.0
2015,5,11,8,0,?9?9?9?9E0?9?9?9?9*9?9?9?9?9*9?9*9*9?9*_?9?9*9?9*9,20.5,19.1,90,98090,385,1338,378,118,68,99,14214,6440,10892,110,180,1.4,6,6,777.7,77777,9,999999999,0,0.0000,0,0,999.000,0.0,99.0
2015,5,11,9,0,?9?9?9?9E0?9?9?9?9*9?9?9?9?9*9?9*9*9?9*_?9?9*9?9*9,23.0,17.9,72,98090,641,1338,364,358,352,190,43002,33446,20901,126,180,1.4,0,0,777.7,77777,9,999999999,0,0.0000,0,0,999.000,0.0,99.0
2015,5,11,10,0,?9?9?9?9E0?9?9?9?9*9?9?9?9?9*9?9*9*9?9*_?9?9*9?9*9,24.2,17.2,64,98090,843,1338,370,574,654,162,68842,62136,17816,82,180,2.0,0,0,777.7,77777,9,999999999,0,0.0000,0,0,999.000,0.0,99.0
2015,5,11,11,0,?9?9?9?9E0?9?9?9?9*9?9?9?9?9*9?9*9*9?9*_?9?9*9?9*9,25.2,16.7,59,98090,978,1338,374,731,822,130,87704,78128,14333,57,180,2.9,0,0,777.7,77777,9,999999999,0,0.0000,0,0,999.000,0.0,99.0
2015,5,11,12,0,?9?9?9?9E0?9?9?9?9*9?9?9?9?9*9?9*9*9?9*_?9?9*9?9*9,26.0,16.3,54,98090,1036,1338,378,826,805,203,99060,76430,22335,84,180,3.4,0,0,777.7,77777,9,999999999,0,0.0000,0,0,999.000,0.0,99.0
2015,5,11,13,0,?9?9?9?9E0?9?9?9?9*9?9?9?9?9*9?9*9*9?9*_?9?9*9?9*9,26.6,15.9,51,98090,1013,1338,380,841,817,223,100973,77608,24551,94,180,3.8,0,0,777.7,77777,9,999999999,0,0.0000,0,0,999.000,0.0,99.0
2015,5,11,14,0,?9?9?9?9E0?9?9?9?9*9?9?9?9?9*9?9*9*9?9*_?9?9*9?9*9,26.9,15.8,50,98090,911,1338,381,783,813,230,94014,77267,25277,107,180,4.5,0,0,777.7,77777,9,999999999,0,0.0000,0,0,999.000,0.0,99.0
2015,5,11,15,0,?9?9?9?9E0?9?9?9?9*9?9?9?9?9*9?9*9*9?9*_?9?9*9?9*9,27.0,15.7,50,98090,737,1338,382,653,777,226,78407,73771,24837,131,180,5.2,0,0,777.7,77777,9,999999999,0,0.0000,0,0,999.000,0.0,99.0
2015,5,11,16,0,?9?9?9?9E0?9?9?9?9*9?9?9?9?9*9?9*9*9?9*_?9?9*9?9*9,26.7,15.9,51,98090,503,1338,380,463,762,177,55568,72352,19482,150,180,5.5,0,0,777.7,77777,9,999999999,0,0.0000,0,0,999.000,0.0,99.0
2015,5,11,17,0,?9?9?9?9E0?9?9?9?9*9?9?9?9?9*9?9*9*9?9*_?9?9*9?9*9,26.0,16.3,54,98090,226,1338,394,227,391,161,27216,37164,17757,307,180,4.7,3,3,777.7,77777,9,999999999,0,0.0000,0,0,999.000,0.0,99.0
2015,5,11,18,0,?9?9?9?9E0?9?9?9?9*9?9?9?9?9*9?9*9*9?9*_?9?9*9?9*9,25.5,16.5,57,98090,0,1338,392,14,0,0,1625,0,0,0,180,3.8,3,3,777.7,77777,9,999999999,0,0.0000,0,0,999.000,0.0,99.0
2015,5,11,19,0,?9?9?9?9E0?9?9?9?9*9?9?9?9?9*9?9*9*9?9*_?9?9*9?9*9,25.0,16.8,60,98090,0,1338,392,0,0,0,0,0,0,0,180,3.0,4,4,777.7,77777,9,999999999,0,0.0000,0,0,999.000,0.0,99.0
2015,5,11,20,0,?9?9?9?9E0?9?9?9?9*9?9?9?9?9*9?9*9*9?9*_?9?9*9?9*9,24.5,17.1,62,98090,0,1338,390,0,0,0,0,0,0,0,180,1.8,4,4,777.7,77777,9,999999999,0,0.0000,0,0,999.000,0.0,99.0
2015,5,11,21,0,?9?9?9?9E0?9?9?9?9*9?9?9?9?9*9?9*9*9?9*_?9?9*9?9*9,24.0,17.4,65,98090,0,1338,388,0,0,0,0,0,0,0,180,1.4,4,4,777.7,77777,9,999999999,0,0.0000,0,0,999.000,0.0,99.0
2015,5,11,22,0,?9?9?9?9E0?9?9?9?9*9?9?9?9?9*9?9*9*9?9*_?9?9*9?9*9,23.5,17.6,68,98090,0,1338,388,0,0,0,0,0,0,0,180,1.4,5,5,777.7,77777,9,999999999,0,0.0000,0,0,999.000,0.0,99.0
2015,5,11,23,0,?9?9?9?9E0?9?9?9?9*9?9?9?9?9*9?9*9*9?9*_?9?9*9?9*9,23.0,17.9,72,98090,0,1338,386,0,0,0,0,0,0,0,180,1.4,5,5,777.7,77777,9,999999999,0,0.0000,0,0,999.000,0.0,99.0
2015,5,11,24,0,?9?9?9?9E0?9?9?9?9*9?9?9?9?9*9?9*9*9?9*_?9?9*9?9*9,22.5,19.3,79,98090,0,1338,385,0,0,0,0,0,0,0,180,1.8,5,5,777.7,77777,9,999999999,0,0.0000,0,0,999.000,0.0,99.0
2015,5,12,1,0,?9?9?9?9E0?9?9?9?9*9?9?9?9?9*9?9*9*9?9*_?9?9*9?9*9,22.2,19.2,80,98090,0,1338,387,0,0,0,0,0,0,0,180,1.8,6,6,777.7,77777,9,999999999,0,0.0000,0,0,999.000,0.0,99.0
2015,5,12,2,0,?9?9?9?9E0?9?9?9?9*9?9?9?9?9*9?9*9*9?9*_?9?9*9?9*9,22.0,19.1,81,98090,0,1338,386,0,0,0,0,0,0,0,180,1.8,6,6,777.7,77777,9,999999999,0,0.0000,0,0,999.000,0.0,99.0
2015,5,12,3,0,?9?9?9?9E0?9?9?9?9*9?9?9?9?9*9?9*9*9?9*_?9?9*9?9*9,21.7,19.0,81,98090,0,1338,384,0,0,0,0,0,0,0,180,1.8,6,6,777.7,77777,9,999999999,0,0.0000,0,0,999.000,0.0,99.0
2015,5,12,4,0,?9?9?9?9E0?9?9?9?9*9?9?9?9?9*9?9*9*9?9*_?9?9*9?9*9,21.5,19.0,82,98090,0,1338,387,0,0,0,0,0,0,0,180,1.8,7,7,777.7,77777,9,999999999,0,0.0000,0,0,999.000,0.0,99.0
2015,5,12,5,0,?9?9?9?9E0?9?9?9?9*9?9?9?9?9*9?9*9*9?9*_?9?9*9?9*9,21.2,18.9,83,98090,0,1338,386,0,0,0,0,0,0,0,180,1.8,7,7,777.7,77777,9,999999999,0,0.0000,0,0,999.000,0.0,99.0
2015,5,12,6,0,?9?9?9?9E0?9?9?9?9*9?9?9?9?9*9?9*9*9?9*_?9?9*9?9*9,21.0,18.8,83,98090,0,1338,385,0,0,0,0,0,0,0,180,1.8,7,7,777.7,77777,9,999999999,0,0.0000,0,0,999.000,0.0,99.0
2015,5,12,7,0,?9?9?9?9E0?9?9?9?9*9?9?9?9?9*9?9*9*9?9*_?9?9*9?9*9,20.9,18.7,88,98090,93,1338,390,0,0,0,0,0,0,0,180,1.8,8,8,777.7,77777,9,999999999,0,0.0000,0,0,999.000,0.0,99.0
2015,5,12,8,0,?9?9?9?9E0?9?9?9?9*9?9?9?9?9*9?9*9*9?9*_?9?9*9?9*9,20.7,18.6,84,98090,382,1338,389,83,0,83,9970,0,9139,93,180,1.8,8,8,777.7,77777,9,999999999,0,0.0000,0,0,999.000,0.0,99.0
2015,5,12,9,0,?9?9?9?9E0?9?9?9?9*9?9?9?9?9*9?9*9*9?9*_?9?9*9?9*9,23.0,19.5,78,98090,637,1338,392,254,104,205,30502,9862,22526,137,180,1.8,6,6,777.7,77777,9,999999999,0,0.0000,0,0,999.000,0.0,99.0
2015,5,12,10,0,?9?9?9?9E0?9?9?9?9*9?9?9?9?9*9?9*9*9?9*_?9?9*9?9*9,24.1,19.9,79,98090,839,1338,398,406,158,307,48754,15051,33765,156,180,2.1,6,6,777.7,77777,9,999999999,0,0.0000,0,0,999.000,0.0,99.0
2015,5,12,11,0,?9?9?9?9E0?9?9?9?9*9?9?9?9?9*9?9*9*9?9*_?9?9*9?9*9,25.1,20.3,73,98090,974,1338,400,520,164,400,62368,15577,44048,175,180,2.3,5,5,777.7,77777,9,999999999,0,0.0000,0,0,999.000,0.0,99.0
2015,5,12,12,0,?9?9?9?9E0?9?9?9?9*9?9?9?9?9*9?9*9*9?9*_?9?9*9?9*9,25.8,20.5,72,98090,1031,1338,404,585,329,331,70195,31236,36464,137,180,3.4,5,5,777.7,77777,9,999999999,0,0.0000,0,0,999.000,0.0,99.0
2015,5,12,13,0,?9?9?9?9E0?9?9?9?9*9?9?9?9?9*9?9*9*9?9*_?9?9*9?9*9,26.3,20.7,71,98090,1009,1338,407,597,386,306,71634,36695,33629,129,180,4.5,5,5,777.7,77777,9,999999999,0,0.0000,0,0,999.000,0.0,99.0
2015,5,12,14,0,?9?9?9?9E0?9?9?9?9*9?9?9?9?9*9?9*9*9?9*_?9?9*9?9*9,26.6,20.8,70,98090,907,1338,409,555,461,243,66580,43751,26684,114,180,4.9,5,5,777.7,77777,9,999999999,0,0.0000,0,0,999.000,0.0,99.0
2015,5,12,15,0,?9?9?9?9E0?9?9?9?9*9?9?9?9?9*9?9*9*9?9*_?9?9*9?9*9,26.7,20.8,70,98090,734,1338,409,462,606,130,55412,57581,14251,75,180,5.0,5,5,777.7,77777,9,999999999,0,0.0000,0,0,999.000,0.0,99.0
2015,5,12,16,0,?9?9?9?9E0?9?9?9?9*9?9?9?9?9*9?9*9*9?9*_?9?9*9?9*9,26.4,20.7,70,98090,500,1338,411,325,535,126,39022,50835,13805,107,180,4.5,6,6,777.7,77777,9,999999999,0,0.0000,0,0,999.000,0.0,99.0
2015,5,12,17,0,?9?9?9?9E0?9?9?9?9*9?9?9?9?9*9?9*9*9?9*_?9?9*9?9*9,25.8,20.5,72,98090,223,1338,412,159,311,107,19027,29582,11787,207,180,3.1,7,7,777.7,77777,9,999999999,0,0.0000,0,0,999.000,0.0,99.0
2015,5,12,18,0,?9?9?9?9E0?9?9?9?9*9?9?9?9?9*9?9*9*9?9*_?9?9*9?9*9,25.4,20.4,73,98090,0,1338,410,9,0,0,1037,0,0,0,180,2.1,7,7,777.7,77777,9,999999999,0,0.0000,0,0,999.000,0.0,99.0
2015,5,12,19,0,?9?9?9?9E0?9?9?9?9*9?9?9?9?9*9?9*9*9?9*_?9?9*9?9*9,24.9,20.2,74,98090,0,1338,407,0,0,0,0,0,0,0,180,1.8,7,7,777.7,77777,9,999999999,0,0.0000,0,0,999.000,0.0,99.0
2015,5,12,20,0,?9?9?9?9E0?9?9?9?9*9?9?9?9?9*9?9*9*9?9*_?9?9*9?9*9,24.5,20.1,75,98090,0,1338,405,0,0,0,0,0,0,0,180,1.8,7,7,777.7,77777,9,999999999,0,0.0000,0,0,999.000,0.0,99.0
2015,5,12,21,0,?9?9?9?9E0?9?9?9?9*9?9?9?9?9*9?9*9*9?9*_?9?9*9?9*9,24.0,19.9,76,98090,0,1338,402,0,0,0,0,0,0,0,180,1.8,7,7,777.7,77777,9,999999999,0,0.0000,0,0,999.000,0.0,99.0
2015,5,12,22,0,?9?9?9?9E0?9?9?9?9*9?9?9?9?9*9?9*9*9?9*_?9?9*9?9*9,23.6,19.7,81,98090,0,1338,399,0,0,0,0,0,0,0,180,1.8,7,7,777.7,77777,9,999999999,0,0.0000,0,0,999.000,0.0,99.0
2015,5,12,23,0,?9?9?9?9E0?9?9?9?9*9?9?9?9?9*9?9*9*9?9*_?9?9*9?9*9,23.1,19.6,82,98090,0,1338,397,0,0,0,0,0,0,0,180,1.8,7,7,777.7,77777,9,999999999,0,0.0000,0,0,999.000,0.9,99.0
2015,5,12,24,0,?9?9?9?9E0?9?9?9?9*9?9?9?9?9*9?9*9*9?9*_?9?9*9?9*9,22.7,19.4,81,98090,0,1338,394,0,0,0,0,0,0,0,180,1.9,7,7,777.7,77777,9,999999999,0,0.0000,0,0,999.000,0.0,99.0
2015,5,13,1,0,?9?9?9?9E0?9?9?9?9*9?9?9?9?9*9?9*9*9?9*_?9?9*9?9*9,22.5,19.3,82,98090,0,1338,399,0,0,0,0,0,0,0,180,1.9,8,8,777.7,77777,9,999999999,0,0.0000,0,0,999.000,0.0,99.0
2015,5,13,2,0,?9?9?9?9E0?9?9?9?9*9?9?9?9?9*9?9*9*9?9*_?9?9*9?9*9,22.3,19.2,83,98090,0,1338,398,0,0,0,0,0,0,0,180,1.9,8,8,777.7,77777,9,999999999,0,0.0000,0,0,999.000,0.0,99.0
2015,5,13,3,0,?9?9?9?9E0?9?9?9?9*9?9?9?9?9*9?9*9*9?9*_?9?9*9?9*9,22.0,19.2,83,98090,0,1338,397,0,0,0,0,0,0,0,180,1.9,8,8,777.7,77777,9,999999999,0,0.0000,0,0,999.000,0.0,99.0
2015,5,13,4,0,?9?9?9?9E0?9?9?9?9*9?9?9?9?9*9?9*9*9?9*_?9?9*9?9*9,21.8,19.1,84,98090,0,1337,395,0,0,0,0,0,0,0,180,1.9,8,8,777.7,77777,9,999999999,0,0.0000,0,0,999.000,0.0,99.0
2015,5,13,5,0,?9?9?9?9E0?9?9?9?9*9?9?9?9?9*9?9*9*9?9*_?9?9*9?9*9,21.6,19.1,85,98090,0,1337,394,0,0,0,0,0,0,0,180,1.9,8,8,777.7,77777,9,999999999,0,0.0000,0,0,999.000,0.0,99.0
2015,5,13,6,0,?9?9?9?9E0?9?9?9?9*9?9?9?9?9*9?9*9*9?9*_?9?9*9?9*9,21.4,19.0,86,98090,0,1337,393,0,0,0,0,0,0,0,180,1.9,8,8,777.7,77777,9,999999999,0,0.0000,0,0,999.000,0.0,99.0
2015,5,13,7,0,?9?9?9?9E0?9?9?9?9*9?9?9?9?9*9?9*9*9?9*_?9?9*9?9*9,21.3,19.0,86,98090,91,1337,392,0,0,0,0,0,0,0,180,1.9,8,8,777.7,77777,9,999999999,0,0.0000,0,0,999.000,0.0,99.0
2015,5,13,8,0,?9?9?9?9E0?9?9?9?9*9?9?9?9?9*9?9*9*9?9*_?9?9*9?9*9,21.1,18.9,87,98090,379,1337,392,89,0,89,10690,0,9799,100,180,1.9,8,8,777.7,77777,9,999999999,0,0.0000,0,0,999.000,0.0,99.0
2015,5,13,9,0,?9?9?9?9E0?9?9?9?9*9?9?9?9?9*9?9*9*9?9*_?9?9*9?9*9,23.7,19.6,78,98090,634,1337,392,283,166,205,34019,15743,22552,138,180,1.9,5,5,777.7,77777,9,999999999,0,0.0000,0,0,999.000,0.0,99.0
2015,5,13,10,0,?9?9?9?9E0?9?9?9?9*9?9?9?9?9*9?9*9*9?9*_?9?9*9?9*9,25.0,20.0,73,98090,835,1337,396,466,345,251,55952,32800,27577,128,180,1.9,4,4,777.7,77777,9,999999999,0,0.0000,0,0,999.000,0.0,99.0
2015,5,13,11,0,?9?9?9?9E0?9?9?9?9*9?9?9?9?9*9?9*9*9?9*_?9?9*9?9*9,26.0,20.3,70,98090,969,1337,399,594,445,271,71248,42301,29808,119,180,1.9,3,3,777.7,77777,9,999999999,0,0.0000,0,0,999.000,0.0,99.0
2015,5,13,12,0,?9?9?9?9E0?9?9?9?9*9?9?9?9?9*9?9*9*9?9*_?9?9*9?9*9,26.9,20.5,67,98090,1027,1337,400,677,582,230,81247,55305,25289,95,180,3.0,2,2,777.7,77777,9,999999999,0,0.0000,0,0,999.000,0.0,99.0
2015,5,13,13,0,?9?9?9?9E0?9?9?9?9*9?9?9?9?9*9?9*9*9?9*_?9?9*9?9*9,27.5,20.7,66,98090,1005,1337,407,671,593,226,80557,56357,24823,96,180,3.5,3,3,777.7,77777,9,999999999,0,0.0000,0,0,999.000,0.0,99.0
2015,5,13,14,0,?9?9?9?9E0?9?9?9?9*9?9?9?9?9*9?9*9*9?9*_?9?9*9?9*9,27.8,20.7,65,98090,903,1337,412,604,637,174,72470,60482,19137,82,180,3.8,4,4,777.7,77777,9,999999999,0,0.0000,0,0,999.000,0.0,99.0
2015,5,13,15,0,?9?9?9?9E0?9?9?9?9*9?9?9?9?9*9?9*9*9?9*_?9?9*9?9*9,27.9,20.8,65,98090,730,1337,409,539,777,115,64676,73777,12677,67,180,4.0,3,3,777.7,77777,9,999999999,0,0.0000,0,0,999.000,0.0,99.0
2015,5,13,16,0,?9?9?9?9E0?9?9?9?9*9?9?9?9?9*9?9*9*9?9*_?9?9*9?9*9,27.6,20.7,66,98090,497,1337,408,396,709,133,47527,67340,14645,114,180,3.9,3,3,777.7,77777,9,999999999,0,0.0000,0,0,999.000,0.0,99.0
2015,5,13,17,0,?9?9?9?9E0?9?9?9?9*9?9?9?9?9*9?9*9*9?9*_?9?9*9?9*9,27.0,20.5,67,98090,220,1337,410,194,363,134,23226,34485,14776,262,180,4.1,5,5,777.7,77777,9,999999999,0,0.0000,0,0,999.000,0.0,99.0
2015,5,13,18,0,?9?9?9?9E0?9?9?9?9*9?9?9?9?9*9?9*9*9?9*_?9?9*9?9*9,26.3,20.3,69,98090,0,1337,406,11,0,0,1291,0,0,0,180,3.9,5,5,777.7,77777,9,999999999,0,0.0000,0,0,999.000,0.0,99.0
2015,5,13,19,0,?9?9?9?9E0?9?9?9?9*9?9?9?9?9*9?9*9*9?9*_?9?9*9?9*9,25.5,20.1,72,98090,0,1337,402,0,0,0,0,0,0,0,180,2.8,5,5,777.7,77777,9,999999999,0,0.0000,0,0,999.000,0.0,99.0
2015,5,13,20,0,?9?9?9?9E0?9?9?9?9*9?9?9?9?9*9?9*9*9?9*_?9?9*9?9*9,24.9,20.0,74,98090,0,1337,398,0,0,0,0,0,0,0,180,2.1,5,5,777.7,77777,9,999999999,0,0.0000,0,0,999.000,0.0,99.0
2015,5,13,21,0,?9?9?9?9E0?9?9?9?9*9?9?9?9?9*9?9*9*9?9*_?9?9*9?9*9,24.1,19.8,76,98090,0,1337,394,0,0,0,0,0,0,0,180,1.9,5,5,777.7,77777,9,999999999,0,0.0000,0,0,999.000,0.0,99.0
2015,5,13,22,0,?9?9?9?9E0?9?9?9?9*9?9?9?9?9*9?9*9*9?9*_?9?9*9?9*9,23.4,19.6,78,98090,0,1337,390,0,0,0,0,0,0,0,180,1.9,5,5,777.7,77777,9,999999999,0,0.0000,0,0,999.000,0.0,99.0
2015,5,13,23,0,?9?9?9?9E0?9?9?9?9*9?9?9?9?9*9?9*9*9?9*_?9?9*9?9*9,22.7,19.4,81,98090,0,1337,386,0,0,0,0,0,0,0,180,1.9,5,5,777.7,77777,9,999999999,0,0.0000,0,0,999.000,0.0,99.0
2015,5,13,24,0,?9?9?9?9E0?9?9?9?9*9?9?9?9?9*9?9*9*9?9*_?9?9*9?9*9,22.0,17.6,76,98090,0,1337,381,0,0,0,0,0,0,0,180,1.4,5,5,777.7,77777,9,999999999,0,0.0000,0,0,999.000,0.0,99.0
2015,5,14,1,0,?9?9?9?9E0?9?9?9?9*9?9?9?9?9*9?9*9*9?9*_?9?9*9?9*9,21.7,17.5,77,98090,0,1337,382,0,0,0,0,0,0,0,180,1.4,6,6,777.7,77777,9,999999999,0,0.0000,0,0,999.000,0.0,99.0
2015,5,14,2,0,?9?9?9?9E0?9?9?9?9*9?9?9?9?9*9?9*9*9?9*_?9?9*9?9*9,21.3,17.4,78,98090,0,1337,380,0,0,0,0,0,0,0,180,1.4,6,6,777.7,77777,9,999999999,0,0.0000,0,0,999.000,0.0,99.0
2015,5,14,3,0,?9?9?9?9E0?9?9?9?9*9?9?9?9?9*9?9*9*9?9*_?9?9*9?9*9,21.0,17.3,79,98090,0,1337,378,0,0,0,0,0,0,0,180,1.4,6,6,777.7,77777,9,999999999,0,0.0000,0,0,999.000,0.0,99.0
2015,5,14,4,0,?9?9?9?9E0?9?9?9?9*9?9?9?9?9*9?9*9*9?9*_?9?9*9?9*9,20.6,17.2,80,98090,0,1337,376,0,0,0,0,0,0,0,180,1.4,6,6,777.7,77777,9,999999999,0,0.0000,0,0,999.000,0.0,99.0
2015,5,14,5,0,?9?9?9?9E0?9?9?9?9*9?9?9?9?9*9?9*9*9?9*_?9?9*9?9*9,20.3,17.1,81,98090,0,1337,374,0,0,0,0,0,0,0,180,1.4,6,6,777.7,77777,9,999999999,0,0.0000,0,0,999.000,0.0,99.0
2015,5,14,6,0,?9?9?9?9E0?9?9?9?9*9?9?9?9?9*9?9*9*9?9*_?9?9*9?9*9,20.0,17.0,82,98090,0,1337,373,0,0,0,0,0,0,0,180,1.4,6,6,777.7,77777,9,999999999,0,0.0000,0,0,999.000,0.0,99.0
2015,5,14,7,0,?9?9?9?9E0?9?9?9?9*9?9?9?9?9*9?9*9*9?9*_?9?9*9?9*9,19.8,16.9,83,98090,89,1337,372,0,0,0,0,0,0,0,180,1.4,6,6,777.7,77777,9,999999999,0,0.0000,0,0,999.000,0.0,99.0
2015,5,14,8,0,?9?9?9?9E0?9?9?9?9*9?9?9?9?9*9?9*9*9?9*_?9?9*9?9*9,19.5,16.8,84,98090,376,1337,370,113,59,97,13577,5562,10638,110,180,1.4,6,6,777.7,77777,9,999999999,0,0.0000,0,0,999.000,0.0,99.0
2015,5,14,9,0,?9?9?9?9E0?9?9?9?9*9?9?9?9?9*9?9*9*9?9*_?9?9*9?9*9,22.5,17.8,74,98090,630,1337,362,352,352,186,42234,33440,20469,126,180,1.4,0,0,777.7,77777,9,999999999,0,0.0000,0,0,999.000,0.0,99.0
2015,5,14,10,0,?9?9?9?9E0?9?9?9?9*9?9?9?9?9*9?9*9*9?9*_?9?9*9?9*9,23.9,18.2,70,98090,832,1337,369,567,661,156,68034,62797,17149,80,180,2.1,0,0,777.7,77777,9,999999999,0,0.0000,0,0,999.000,0.0,99.0
2015,5,14,11,0,?9?9?9?9E0?9?9?9?9*9?9?9?9?9*9?9*9*9?9*_?9?9*9?9*9,25.1,18.6,67,98090,965,1337,376,730,873,99,87613,82980,10925,44,180,3.2,0,0,777.7,77777,9,999999999,0,0.0000,0,0,999.000,0.0,99.0
2015,5,14,12,0,?9?9?9?9E0?9?9?9?9*9?9?9?9?9*9?9*9*9?9*_?9?9*9?9*9,26.1,18.9,64,98090,1023,1337,381,822,794,214,98634,75449,23550,89,180,3.6,0,0,777.7,77777,9,999999999,0,0.0000,0,0,999.000,0.0,99.0
2015,5,14,13,0,?9?9?9?9E0?9?9?9?9*9?9?9?9?9*9?9*9*9?9*_?9?9*9?9*9,26.8,19.1,62,98090,1001,1337,385,840,819,227,100745,77784,24934,96,180,3.7,0,0,777.7,77777,9,999999999,0,0.0000,0,0,999.000,0.0,99.0
2015,5,14,14,0,?9?9?9?9E0?9?9?9?9*9?9?9?9?9*9?9*9*9?9*_?9?9*9?9*9,27.2,19.2,61,98090,899,1337,387,787,809,243,94440,76862,26699,115,180,4.5,0,0,777.7,77777,9,999999999,0,0.0000,0,0,999.000,0.0,99.0
2015,5,14,15,0,?9?9?9?9E0?9?9?9?9*9?9?9?9?9*9?9*9*9?9*_?9?9*9?9*9,27.2,19.2,61,98090,727,1337,387,658,811,218,78964,77018,23942,128,180,5.2,0,0,777.7,77777,9,999999999,0,0.0000,0,0,999.000,0.0,99.0
2015,5,14,16,0,?9?9?9?9E0?9?9?9?9*9?9?9?9?9*9?9*9*9?9*_?9?9*9?9*9,26.9,19.1,62,98090,494,1337,385,465,787,174,55746,74763,19179,151,180,5.2,0,0,777.7,77777,9,999999999,0,0.0000,0,0,999.000,0.0,99.0
2015,5,14,17,0,?9?9?9?9E0?9?9?9?9*9?9?9?9?9*9?9*9*9?9*_?9?9*9?9*9,26.1,18.9,64,98090,218,1337,394,227,383,165,27256,36392,18189,326,180,5.1,2,2,777.7,77777,9,999999999,0,0.0000,0,0,999.000,0.0,99.0
2015,5,14,18,0,?9?9?9?9E0?9?9?9?9*9?9?9?9?9*9?9*9*9?9*_?9?9*9?9*9,25.5,18.7,66,98090,0,1337,390,13,0,0,1506,0,0,0,180,4.1,2,2,777.7,77777,9,999999999,0,0.0000,0,0,999.000,0.0,99.0
2015,5,14,19,0,?9?9?9?9E0?9?9?9?9*9?9?9?9?9*9?9*9*9?9*_?9?9*9?9*9,24.8,18.5,67,98090,0,1337,390,0,0,0,0,0,0,0,180,2.7,3,3,777.7,77777,9,999999999,0,0.0000,0,0,999.000,0.0,99.0
2015,5,14,20,0,?9?9?9?9E0?9?9?9?9*9?9?9?9?9*9?9*9*9?9*_?9?9*9?9*9,24.2,18.3,69,98090,0,1337,387,0,0,0,0,0,0,0,180,2.2,3,3,777.7,77777,9,999999999,0,0.0000,0,0,999.000,0.0,99.0
2015,5,14,21,0,?9?9?9?9E0?9?9?9?9*9?9?9?9?9*9?9*9*9?9*_?9?9*9?9*9,23.5,18.1,71,98090,0,1337,383,0,0,0,0,0,0,0,180,1.7,3,3,777.7,77777,9,999999999,0,0.0000,0,0,999.000,0.0,99.0
2015,5,14,22,0,?9?9?9?9E0?9?9?9?9*9?9?9?9?9*9?9*9*9?9*_?9?9*9?9*9,22.9,17.9,73,98090,0,1337,383,0,0,0,0,0,0,0,180,1.4,4,4,777.7,77777,9,999999999,0,0.0000,0,0,999.000,0.0,99.0
2015,5,14,23,0,?9?9?9?9E0?9?9?9?9*9?9?9?9?9*9?9*9*9?9*_?9?9*9?9*9,22.3,17.7,75,98090,0,1337,379,0,0,0,0,0,0,0,180,1.4,4,4,777.7,77777,9,999999999,0,0.0000,0,0,999.000,0.0,99.0
2015,5,14,24,0,?9?9?9?9E0?9?9?9?9*9?9?9?9?9*9?9*9*9?9*_?9?9*9?9*9,21.6,17.6,78,98090,0,1337,376,0,0,0,0,0,0,0,180,1.8,4,4,777.7,77777,9,999999999,0,0.0000,0,0,999.000,0.0,99.0
2015,5,15,1,0,?9?9?9?9E0?9?9?9?9*9?9?9?9?9*9?9*9*9?9*_?9?9*9?9*9,21.3,17.5,78,98090,0,1337,377,0,0,0,0,0,0,0,180,1.8,5,5,777.7,77777,9,999999999,0,0.0000,0,0,999.000,0.0,99.0
2015,5,15,2,0,?9?9?9?9E0?9?9?9?9*9?9?9?9?9*9?9*9*9?9*_?9?9*9?9*9,21.0,17.4,79,98090,0,1337,375,0,0,0,0,0,0,0,180,1.8,5,5,777.7,77777,9,999999999,0,0.0000,0,0,999.000,0.0,99.0
2015,5,15,3,0,?9?9?9?9E0?9?9?9?9*9?9?9?9?9*9?9*9*9?9*_?9?9*9?9*9,20.7,17.2,80,98090,0,1337,373,0,0,0,0,0,0,0,180,1.8,5,5,777.7,77777,9,999999999,0,0.0000,0,0,999.000,0.0,99.0
2015,5,15,4,0,?9?9?9?9E0?9?9?9?9*9?9?9?9?9*9?9*9*9?9*_?9?9*9?9*9,20.3,17.1,81,98090,0,1336,375,0,0,0,0,0,0,0,180,1.8,6,6,777.7,77777,9,999999999,0,0.0000,0,0,999.000,0.0,99.0
2015,5,15,5,0,?9?9?9?9E0?9?9?9?9*9?9?9?9?9*9?9*9*9?9*_?9?9*9?9*9,20.0,16.9,82,98090,0,1336,373,0,0,0,0,0,0,0,180,1.8,6,6,777.7,77777,9,999999999,0,0.0000,0,0,999.000,0.0,99.0
2015,5,15,6,0,?9?9?9?9E0?9?9?9?9*9?9?9?9?9*9?9*9*9?9*_?9?9*9?9*9,19.8,16.8,83,98090,0,1336,372,0,0,0,0,0,0,0,180,1.8,6,6,777.7,77777,9,999999999,0,0.0000,0,0,999.000,0.0,99.0
2015,5,15,7,0,?9?9?9?9E0?9?9?9?9*9?9?9?9?9*9?9*9*9?9*_?9?9*9?9*9,19.6,16.7,83,98090,87,1336,375,0,0,0,0,0,0,0,180,1.8,7,7,777.7,77777,9,999999999,0,0.0000,0,0,999.000,0.0,99.0
2015,5,15,8,0,?9?9?9?9E0?9?9?9?9*9?9?9?9?9*9?9*9*9?9*_?9?9*9?9*9,19.4,16.6,84,98090,373,1336,373,102,13,99,12251,1197,10844,113,180,1.8,7,7,777.7,77777,9,999999999,0,0.0000,0,0,999.000,0.0,99.0
2015,5,15,9,0,?9?9?9?9E0?9?9?9?9*9?9?9?9?9*9?9*9*9?9*_?9?9*9?9*9,22.2,17.9,76,98090,627,1336,376,320,257,199,38374,24460,21895,135,180,1.8,3,3,777.7,77777,9,999999999,0,0.0000,0,0,999.000,0.0,99.0
2015,5,15,10,0,?9?9?9?9E0?9?9?9?9*9?9?9?9?9*9?9*9*9?9*_?9?9*9?9*9,23.6,18.4,72,98090,828,1336,368,519,509,204,62324,48402,22420,105,180,2.2,0,0,777.7,77777,9,999999999,0,0.0000,0,0,999.000,0.0,99.0
2015,5,15,11,0,?9?9?9?9E0?9?9?9?9*9?9?9?9?9*9?9*9*9?9*_?9?9*9?9*9,24.7,18.9,69,98090,962,1336,374,663,656,191,79553,62280,21035,85,180,3.2,0,0,777.7,77777,9,999999999,0,0.0000,0,0,999.000,0.0,99.0
2015,5,15,12,0,?9?9?9?9E0?9?9?9?9*9?9?9?9?9*9?9*9*9?9*_?9?9*9?9*9,25.6,19.2,67,98090,1019,1336,379,740,804,126,88769,76409,13894,53,180,3.9,0,0,777.7,77777,9,999999999,0,0.0000,0,0,999.000,0.0,99.0
2015,5,15,13,0,?9?9?9?9E0?9?9?9?9*9?9?9?9?9*9?9*9*9?9*_?9?9*9?9*9,26.3,19.5,66,98090,997,1336,383,755,924,66,90553,87735,7238,28,180,4.4,0,0,777.7,77777,9,999999999,0,0.0000,0,0,999.000,0.0,99.0
2015,5,15,14,0,?9?9?9?9E0?9?9?9?9*9?9?9?9?9*9?9*9*9?9*_?9?9*9?9*9,26.6,19.6,65,98090,896,1336,385,696,770,180,83516,73190,19762,85,180,4.3,0,0,777.7,77777,9,999999999,0,0.0000,0,0,999.000,0.0,99.0
2015,5,15,15,0,?9?9?9?9E0?9?9?9?9*9?9?9?9?9*9?9*9*9?9*_?9?9*9?9*9,26.7,19.6,65,98090,723,1336,385,575,819,132,69020,77781,14560,78,180,4.1,0,0,777.7,77777,9,999999999,0,0.0000,0,0,999.000,0.0,99.0
2015,5,15,16,0,?9?9?9?9E0?9?9?9?9*9?9?9?9?9*9?9*9*9?9*_?9?9*9?9*9,26.3,19.5,66,98090,491,1336,399,396,748,122,47480,71029,13370,106,180,3.9,3,3,777.7,77777,9,999999999,0,0.0000,0,0,999.000,0.0,99.0
2015,5,15,17,0,?9?9?9?9E0?9?9?9?9*9?9?9?9?9*9?9*9*9?9*_?9?9*9?9*9,25.5,19.2,68,98090,215,1336,405,187,421,120,22406,40024,13149,239,180,3.4,6,6,777.7,77777,9,999999999,0,0.0000,0,0,999.000,0.0,99.0
2015,5,15,18,0,?9?9?9?9E0?9?9?9?9*9?9?9?9?9*9?9*9*9?9*_?9?9*9?9*9,24.9,19.0,69,98090,0,1336,401,6,0,0,721,0,0,0,180,2.5,6,6,777.7,77777,9,999999999,0,0.0000,0,0,999.000,0.0,99.0
2015,5,15,19,0,?9?9?9?9E0?9?9?9?9*9?9?9?9?9*9?9*9*9?9*_?9?9*9?9*9,24.3,18.7,70,98090,0,1336,398,0,0,0,0,0,0,0,180,1.8,6,6,777.7,77777,9,999999999,0,0.0000,0,0,999.000,0.0,99.0
2015,5,15,20,0,?9?9?9?9E0?9?9?9?9*9?9?9?9?9*9?9*9*9?9*_?9?9*9?9*9,23.8,18.5,72,98090,0,1336,394,0,0,0,0,0,0,0,180,1.8,6,6,777.7,77777,9,999999999,0,0.0000,0,0,999.000,0.0,99.0
2015,5,15,21,0,?9?9?9?9E0?9?9?9?9*9?9?9?9?9*9?9*9*9?9*_?9?9*9?9*9,23.2,18.3,73,98090,0,1336,391,0,0,0,0,0,0,0,180,1.8,6,6,777.7,77777,9,999999999,0,0.0000,0,0,999.000,0.0,99.0
2015,5,15,22,0,?9?9?9?9E0?9?9?9?9*9?9?9?9?9*9?9*9*9?9*_?9?9*9?9*9,22.6,18.0,75,98090,0,1336,387,0,0,0,0,0,0,0,180,1.8,6,6,777.7,77777,9,999999999,0,0.0000,0,0,999.000,0.0,99.0
2015,5,15,23,0,?9?9?9?9E0?9?9?9?9*9?9?9?9?9*9?9*9*9?9*_?9?9*9?9*9,22.0,17.8,77,98090,0,1336,384,0,0,0,0,0,0,0,180,1.8,6,6,777.7,77777,9,999999999,0,0.0000,0,0,999.000,0.0,99.0
2015,5,15,24,0,?9?9?9?9E0?9?9?9?9*9?9?9?9?9*9?9*9*9?9*_?9?9*9?9*9,21.4,16.3,72,98090,0,1336,379,0,0,0,0,0,0,0,180,2.1,6,6,777.7,77777,9,999999999,0,0.0000,0,0,999.000,0.0,99.0
2015,5,16,1,0,?9?9?9?9E0?9?9?9?9*9?9?9?9?9*9?9*9*9?9*_?9?9*9?9*9,21.1,16.4,74,98090,0,1336,382,0,0,0,0,0,0,0,180,2.1,7,7,777.7,77777,9,999999999,0,0.0000,0,0,999.000,0.0,99.0
2015,5,16,2,0,?9?9?9?9E0?9?9?9?9*9?9?9?9?9*9?9*9*9?9*_?9?9*9?9*9,20.8,16.5,76,98090,0,1336,381,0,0,0,0,0,0,0,180,2.1,7,7,777.7,77777,9,999999999,0,0.0000,0,0,999.000,0.0,99.0
2015,5,16,3,0,?9?9?9?9E0?9?9?9?9*9?9?9?9?9*9?9*9*9?9*_?9?9*9?9*9,20.5,16.6,78,98090,0,1336,379,0,0,0,0,0,0,0,180,2.1,7,7,777.7,77777,9,999999999,0,0.0000,0,0,999.000,0.0,99.0
2015,5,16,4,0,?9?9?9?9E0?9?9?9?9*9?9?9?9?9*9?9*9*9?9*_?9?9*9?9*9,20.2,16.7,80,98090,0,1335,378,0,0,0,0,0,0,0,180,2.1,7,7,777.7,77777,9,999999999,0,0.0000,0,0,999.000,0.0,99.0
2015,5,16,5,0,?9?9?9?9E0?9?9?9?9*9?9?9?9?9*9?9*9*9?9*_?9?9*9?9*9,19.9,16.8,82,98090,0,1335,376,0,0,0,0,0,0,0,180,2.1,7,7,777.7,77777,9,999999999,0,0.0000,0,0,999.000,0.0,99.0
2015,5,16,6,0,?9?9?9?9E0?9?9?9?9*9?9?9?9?9*9?9*9*9?9*_?9?9*9?9*9,19.7,16.8,83,98090,0,1335,375,0,0,0,0,0,0,0,180,2.1,7,7,777.7,77777,9,999999999,0,0.0000,0,0,999.000,0.0,99.0
2015,5,16,7,0,?9?9?9?9E0?9?9?9?9*9?9?9?9?9*9?9*9*9?9*_?9?9*9?9*9,19.5,16.9,84,98090,84,1335,374,0,0,0,0,0,0,0,180,2.1,7,7,777.7,77777,9,999999999,0,0.0000,0,0,999.000,0.0,99.0
2015,5,16,8,0,?9?9?9?9E0?9?9?9?9*9?9?9?9?9*9?9*9*9?9*_?9?9*9?9*9,19.3,17.0,86,98090,371,1335,374,105,39,94,12557,3666,10337,108,180,2.1,7,7,777.7,77777,9,999999999,0,0.0000,0,0,999.000,0.0,99.0
2015,5,16,9,0,?9?9?9?9E0?9?9?9?9*9?9?9?9?9*9?9*9*9?9*_?9?9*9?9*9,22.2,16.0,68,98090,624,1335,370,333,269,208,39974,25558,22833,142,180,2.1,2,2,777.7,77777,9,999999999,0,0.0000,0,0,999.000,0.0,99.0
2015,5,16,10,0,?9?9?9?9E0?9?9?9?9*9?9?9?9?9*9?9*9*9?9*_?9?9*9?9*9,23.6,15.6,60,98090,824,1335,365,538,550,199,64585,52219,21905,103,180,2.1,0,0,777.7,77777,9,999999999,0,0.0000,0,0,999.000,0.0,99.0
2015,5,16,11,0,?9?9?9?9E0?9?9?9?9*9?9?9?9?9*9?9*9*9?9*_?9?9*9?9*9,24.8,15.2,55,98090,958,1335,370,691,746,157,82958,70851,17230,70,180,2.1,0,0,777.7,77777,9,999999999,0,0.0000,0,0,999.000,0.0,99.0
2015,5,16,12,0,?9?9?9?9E0?9?9?9?9*9?9?9?9?9*9?9*9*9?9*_?9?9*9?9*9,25.7,14.9,51,98090,1015,1335,374,778,859,125,93340,81645,13710,52,180,2.3,0,0,777.7,77777,9,999999999,0,0.0000,0,0,999.000,0.0,99.0
2015,5,16,13,0,?9?9?9?9E0?9?9?9?9*9?9?9?9?9*9?9*9*9?9*_?9?9*9?9*9,26.4,14.6,48,98090,993,1335,378,796,794,206,95566,75415,22701,88,180,2.5,0,0,777.7,77777,9,999999999,0,0.0000,0,0,999.000,0.0,99.0
2015,5,16,14,0,?9?9?9?9E0?9?9?9?9*9?9?9?9?9*9?9*9*9?9*_?9?9*9?9*9,26.8,14.5,46,98090,892,1335,379,740,806,202,88819,76594,22202,96,180,3.5,0,0,777.7,77777,9,999999999,0,0.0000,0,0,999.000,0.0,99.0
2015,5,16,15,0,?9?9?9?9E0?9?9?9?9*9?9?9?9?9*9?9*9*9?9*_?9?9*9?9*9,26.9,14.5,46,98090,720,1335,380,616,777,197,73883,73821,21692,117,180,4.3,0,0,777.7,77777,9,999999999,0,0.0000,0,0,999.000,0.0,99.0
2015,5,16,16,0,?9?9?9?9E0?9?9?9?9*9?9?9?9?9*9?9*9*9?9*_?9?9*9?9*9,26.5,14.6,48,98090,488,1335,378,432,696,178,51874,66144,19626,156,180,4.5,0,0,777.7,77777,9,999999999,0,0.0000,0,0,999.000,0.0,99.0
2015,5,16,17,0,?9?9?9?9E0?9?9?9?9*9?9?9?9?9*9?9*9*9?9*_?9?9*9?9*9,25.7,14.9,51,98090,213,1335,394,208,398,146,25013,37771,16030,294,180,3.9,4,4,777.7,77777,9,999999999,0,0.0000,0,0,999.000,0.0,99.0
2015,5,16,18,0,?9?9?9?9E0?9?9?9?9*9?9?9?9?9*9?9*9*9?9*_?9?9*9?9*9,24.9,15.2,54,98090,0,1335,390,10,0,0,1157,0,0,0,180,3.1,4,4,777.7,77777,9,999999999,0,0.0000,0,0,999.000,0.0,99.0
2015,5,16,19,0,?9?9?9?9E0?9?9?9?9*9?9?9?9?9*9?9*9*9?9*_?9?9*9?9*9,24.0,15.5,58,98090,0,1335,388,0,0,0,0,0,0,0,180,2.1,5,5,777.7,77777,9,999999999,0,0.0000,0,0,999.000,0.0,99.0
2015,5,16,20,0,?9?9?9?9E0?9?9?9?9*9?9?9?9?9*9?9*9*9?9*_?9?9*9?9*9,23.2,15.7,63,98090,0,1335,384,0,0,0,0,0,0,0,180,2.1,5,5,777.7,77777,9,999999999,0,0.0000,0,0,999.000,0.0,99.0
2015,5,16,21,0,?9?9?9?9E0?9?9?9?9*9?9?9?9?9*9?9*9*9?9*_?9?9*9?9*9,22.3,16.0,67,98090,0,1335,380,0,0,0,0,0,0,0,180,2.1,5,5,777.7,77777,9,999999999,0,0.0000,0,0,999.000,0.0,99.0
2015,5,16,22,0,?9?9?9?9E0?9?9?9?9*9?9?9?9?9*9?9*9*9?9*_?9?9*9?9*9,21.5,16.3,72,98090,0,1335,376,0,0,0,0,0,0,0,180,2.1,5,5,777.7,77777,9,999999999,0,0.0000,0,0,999.000,0.0,99.0
2015,5,16,23,0,?9?9?9?9E0?9?9?9?9*9?9?9?9?9*9?9*9*9?9*_?9?9*9?9*9,20.6,16.5,77,98090,0,1335,375,0,0,0,0,0,0,0,180,2.1,6,6,777.7,77777,9,999999999,0,0.0000,0,0,999.000,0.0,99.0
2015,5,16,24,0,?9?9?9?9E0?9?9?9?9*9?9?9?9?9*9?9*9*9?9*_?9?9*9?9*9,19.8,14.8,69,98090,0,1335,369,0,0,0,0,0,0,0,180,1.5,6,6,777.7,77777,9,999999999,0,0.0000,0,0,999.000,0.0,99.0
2015,5,17,1,0,?9?9?9?9E0?9?9?9?9*9?9?9?9?9*9?9*9*9?9*_?9?9*9?9*9,19.3,14.9,71,98090,0,1335,367,0,0,0,0,0,0,0,180,1.5,6,6,777.7,77777,9,999999999,0,0.0000,0,0,999.000,0.0,99.0
2015,5,17,2,0,?9?9?9?9E0?9?9?9?9*9?9?9?9?9*9?9*9*9?9*_?9?9*9?9*9,18.9,15.0,73,98090,0,1335,365,0,0,0,0,0,0,0,180,1.5,6,6,777.7,77777,9,999999999,0,0.0000,0,0,999.000,0.0,99.0
2015,5,17,3,0,?9?9?9?9E0?9?9?9?9*9?9?9?9?9*9?9*9*9?9*_?9?9*9?9*9,18.5,15.1,75,98090,0,1335,367,0,0,0,0,0,0,0,180,1.5,7,7,777.7,77777,9,999999999,0,0.0000,0,0,999.000,0.0,99.0
2015,5,17,4,0,?9?9?9?9E0?9?9?9?9*9?9?9?9?9*9?9*9*9?9*_?9?9*9?9*9,18.0,15.2,81,98090,0,1335,365,0,0,0,0,0,0,0,180,1.5,7,7,777.7,77777,9,999999999,0,0.0000,0,0,999.000,0.3,99.0
2015,5,17,5,0,?9?9?9?9E0?9?9?9?9*9?9?9?9?9*9?9*9*9?9*_?9?9*9?9*9,17.6,15.2,91,98090,0,1335,363,0,0,0,0,0,0,0,180,1.5,7,7,777.7,77777,9,999999999,5,0.0000,0,0,999.000,5.4,99.0
2015,5,17,6,0,?9?9?9?9E0?9?9?9?9*9?9?9?9?9*9?9*9*9?9*_?9?9*9?9*9,17.3,15.3,85,98090,0,1335,362,0,0,0,0,0,0,0,180,1.5,7,7,777.7,77777,9,999999999,0,0.0000,0,0,999.000,0.0,99.0
2015,5,17,7,0,?9?9?9?9E0?9?9?9?9*9?9?9?9?9*9?9*9*9?9*_?9?9*9?9*9,17.0,15.4,87,98090,82,1335,366,0,0,0,0,0,0,0,180,1.5,8,8,777.7,77777,9,999999999,0,0.0000,0,0,999.000,0.1,99.0
2015,5,17,8,0,?9?9?9?9E0?9?9?9?9*9?9?9?9?9*9?9*9*9?9*_?9?9*9?9*9,16.7,15.4,84,98090,368,1335,365,52,0,52,6288,0,5764,61,180,1.5,8,8,777.7,77777,9,999999999,0,0.0000,0,0,999.000,0.0,99.0
2015,5,17,9,0,?9?9?9?9E0?9?9?9?9*9?9?9?9?9*9?9*9*9?9*_?9?9*9?9*9,19.2,14.9,72,98090,621,1335,377,168,9,164,20148,846,18014,112,180,1.5,8,8,777.7,77777,9,999999999,0,0.0000,0,0,999.000,0.0,99.0
2015,5,17,10,0,?9?9?9?9E0?9?9?9?9*9?9?9?9?9*9?9*9*9?9*_?9?9*9?9*9,20.4,14.7,66,98090,821,1335,383,271,45,243,32525,4306,26751,126,180,1.8,8,8,777.7,77777,9,999999999,0,0.0000,0,0,999.000,0.0,99.0
2015,5,17,11,0,?9?9?9?9E0?9?9?9?9*9?9?9?9?9*9?9*9*9?9*_?9?9*9?9*9,21.5,14.5,62,98090,954,1335,388,348,22,332,41762,2127,36523,148,180,3.3,8,8,777.7,77777,9,999999999,0,0.0000,0,0,999.000,0.0,99.0
2015,5,17,12,0,?9?9?9?9E0?9?9?9?9*9?9?9?9?9*9?9*9*9?9*_?9?9*9?9*9,22.3,14.3,59,98090,1011,1335,392,392,28,371,47075,2614,40859,156,180,4.0,8,8,777.7,77777,9,999999999,0,0.0000,0,0,999.000,0.0,99.0
2015,5,17,13,0,?9?9?9?9E0?9?9?9?9*9?9?9?9?9*9?9*9*9?9*_?9?9*9?9*9,22.9,14.2,57,98090,989,1335,395,400,71,348,48054,6700,38303,150,180,4.4,8,8,777.7,77777,9,999999999,0,0.0000,0,0,999.000,0.0,99.0
2015,5,17,14,0,?9?9?9?9E0?9?9?9?9*9?9?9?9?9*9?9*9*9?9*_?9?9*9?9*9,23.2,14.1,56,98090,888,1335,397,372,88,313,44627,8382,34451,150,180,4.8,8,8,777.7,77777,9,999999999,0,0.0000,0,0,999.000,0.0,99.0
2015,5,17,15,0,?9?9?9?9E0?9?9?9?9*9?9?9?9?9*9?9*9*9?9*_?9?9*9?9*9,23.2,14.1,56,98090,716,1335,397,309,115,247,37052,10937,27173,147,180,5.2,8,8,777.7,77777,9,999999999,0,0.0000,0,0,999.000,0.0,99.0
2015,5,17,16,0,?9?9?9?9E0?9?9?9?9*9?9?9?9?9*9?9*9*9?9*_?9?9*9?9*9,22.9,14.2,57,98090,485,1335,395,216,185,149,25938,17616,16379,131,180,4.9,8,8,777.7,77777,9,999999999,0,0.0000,0,0,999.000,0.0,99.0
2015,5,17,17,0,?9?9?9?9E0?9?9?9?9*9?9?9?9?9*9?9*9*9?9*_?9?9*9?9*9,22.3,14.3,59,98090,211,1335,392,103,294,58,12400,27889,6326,117,180,4.0,8,8,777.7,77777,9,999999999,0,0.0000,0,0,999.000,0.0,99.0
2015,5,17,18,0,?9?9?9?9E0?9?9?9?9*9?9?9?9?9*9?9*9*9?9*_?9?9*9?9*9,21.7,14.4,61,98090,0,1335,389,4,0,0,515,0,0,0,180,3.4,8,8,777.7,77777,9,999999999,0,0.0000,0,0,999.000,0.0,99.0
2015,5,17,19,0,?9?9?9?9E0?9?9?9?9*9?9?9?9?9*9?9*9*9?9*_?9?9*9?9*9,21.2,14.5,67,98090,0,1335,386,0,0,0,0,0,0,0,180,2.2,8,8,777.7,77777,9,999999999,0,0.0000,0,0,999.000,0.0,99.0
2015,5,17,20,0,?9?9?9?9E0?9?9?9?9*9?9?9?9?9*9?9*9*9?9*_?9?9*9?9*9,20.6,14.6,65,98090,0,1335,384,0,0,0,0,0,0,0,180,1.5,8,8,777.7,77777,9,999999999,0,0.0000,0,0,999.000,0.0,99.0
2015,5,17,21,0,?9?9?9?9E0?9?9?9?9*9?9?9?9?9*9?9*9*9?9*_?9?9*9?9*9,20.1,14.8,72,98090,0,1335,381,0,0,0,0,0,0,0,180,1.5,8,8,777.7,77777,9,999999999,0,0.0000,0,0,999.000,0.1,99.0
2015,5,17,22,0,?9?9?9?9E0?9?9?9?9*9?9?9?9?9*9?9*9*9?9*_?9?9*9?9*9,19.6,14.9,74,98090,0,1335,378,0,0,0,0,0,0,0,180,1.5,8,8,777.7,77777,9,999999999,0,0.0000,0,0,999.000,0.0,99.0
2015,5,17,23,0,?9?9?9?9E0?9?9?9?9*9?9?9?9?9*9?9*9*9?9*_?9?9*9?9*9,19.0,15.0,77,98090,0,1335,376,0,0,0,0,0,0,0,180,1.5,8,8,777.7,77777,9,999999999,0,0.0000,0,0,999.000,0.0,99.0
2015,5,17,24,0,?9?9?9?9E0?9?9?9?9*9?9?9?9?9*9?9*9*9?9*_?9?9*9?9*9,18.5,11.8,65,98090,0,1335,369,0,0,0,0,0,0,0,180,1.6,8,8,777.7,77777,9,999999999,0,0.0000,0,0,999.000,0.0,99.0
2015,5,18,1,0,?9?9?9?9E0?9?9?9?9*9?9?9?9?9*9?9*9*9?9*_?9?9*9?9*9,18.2,11.8,66,98090,0,1335,368,0,0,0,0,0,0,0,180,1.6,8,8,777.7,77777,9,999999999,0,0.0000,0,0,999.000,0.0,99.0
2015,5,18,2,0,?9?9?9?9E0?9?9?9?9*9?9?9?9?9*9?9*9*9?9*_?9?9*9?9*9,18.0,11.8,67,98090,0,1335,366,0,0,0,0,0,0,0,180,1.6,8,8,777.7,77777,9,999999999,0,0.0000,0,0,999.000,0.0,99.0
2015,5,18,3,0,?9?9?9?9E0?9?9?9?9*9?9?9?9?9*9?9*9*9?9*_?9?9*9?9*9,17.7,11.8,68,98090,0,1335,365,0,0,0,0,0,0,0,180,1.6,8,8,777.7,77777,9,999999999,0,0.0000,0,0,999.000,0.0,99.0
2015,5,18,4,0,?9?9?9?9E0?9?9?9?9*9?9?9?9?9*9?9*9*9?9*_?9?9*9?9*9,17.4,11.8,69,98090,0,1334,364,0,0,0,0,0,0,0,180,1.6,8,8,777.7,77777,9,999999999,0,0.0000,0,0,999.000,0.0,99.0
2015,5,18,5,0,?9?9?9?9E0?9?9?9?9*9?9?9?9?9*9?9*9*9?9*_?9?9*9?9*9,17.1,11.7,70,98090,0,1334,362,0,0,0,0,0,0,0,180,1.6,8,8,777.7,77777,9,999999999,0,0.0000,0,0,999.000,0.0,99.0
2015,5,18,6,0,?9?9?9?9E0?9?9?9?9*9?9?9?9?9*9?9*9*9?9*_?9?9*9?9*9,16.9,11.7,71,98090,0,1334,361,0,0,0,0,0,0,0,180,1.6,8,8,777.7,77777,9,999999999,0,0.0000,0,0,999.000,0.0,99.0
2015,5,18,7,0,?9?9?9?9E0?9?9?9?9*9?9?9?9?9*9?9*9*9?9*_?9?9*9?9*9,16.8,11.7,71,98090,80,1334,360,0,0,0,0,0,0,0,180,1.6,8,8,777.7,77777,9,999999999,0,0.0000,0,0,999.000,0.0,99.0
2015,5,18,8,0,?9?9?9?9E0?9?9?9?9*9?9?9?9?9*9?9*9*9?9*_?9?9*9?9*9,16.6,11.7,72,98090,365,1334,359,88,0,88,10573,0,9692,103,180,1.6,8,8,777.7,77777,9,999999999,0,0.0000,0,0,999.000,0.0,99.0
2015,5,18,9,0,?9?9?9?9E0?9?9?9?9*9?9?9?9?9*9?9*9*9?9*_?9?9*9?9*9,19.0,11.9,63,98090,617,1334,359,286,178,204,34346,16868,22458,141,180,1.6,5,5,777.7,77777,9,999999999,0,0.0000,0,0,999.000,0.0,99.0
2015,5,18,10,0,?9?9?9?9E0?9?9?9?9*9?9?9?9?9*9?9*9*9?9*_?9?9*9?9*9,20.2,12.0,59,98090,817,1334,356,479,365,255,57426,34693,28056,133,180,1.6,2,2,777.7,77777,9,999999999,0,0.0000,0,0,999.000,0.0,99.0
2015,5,18,11,0,?9?9?9?9E0?9?9?9?9*9?9?9?9?9*9?9*9*9?9*_?9?9*9?9*9,21.3,12.1,55,98090,950,1334,350,626,531,248,75178,50452,27329,111,180,2.1,0,0,777.7,77777,9,999999999,0,0.0000,0,0,999.000,0.0,99.0
2015,5,18,12,0,?9?9?9?9E0?9?9?9?9*9?9?9?9?9*9?9*9*9?9*_?9?9*9?9*9,22.2,12.2,52,98090,1007,1334,354,710,662,210,85150,62869,23102,89,180,3.3,0,0,777.7,77777,9,999999999,0,0.0000,0,0,999.000,0.0,99.0
2015,5,18,13,0,?9?9?9?9E0?9?9?9?9*9?9?9?9?9*9?9*9*9?9*_?9?9*9?9*9,22.8,12.2,51,98090,985,1334,357,727,788,146,87293,74850,16041,63,180,4.0,0,0,777.7,77777,9,999999999,0,0.0000,0,0,999.000,0.0,99.0
2015,5,18,14,0,?9?9?9?9E0?9?9?9?9*9?9?9?9?9*9?9*9*9?9*_?9?9*9?9*9,23.2,12.2,50,98090,885,1334,359,685,766,177,82188,72791,19465,85,180,5.1,0,0,777.7,77777,9,999999999,0,0.0000,0,0,999.000,0.0,99.0
2015,5,18,15,0,?9?9?9?9E0?9?9?9?9*9?9?9?9?9*9?9*9*9?9*_?9?9*9?9*9,23.2,12.3,49,98090,713,1334,366,554,764,147,66524,72533,16118,87,180,5.0,1,1,777.7,77777,9,999999999,0,0.0000,0,0,999.000,0.0,99.0
2015,5,18,16,0,?9?9?9?9E0?9?9?9?9*9?9?9?9?9*9?9*9*9?9*_?9?9*9?9*9,22.9,12.2,50,98090,482,1334,376,377,620,153,45198,58862,16843,135,180,4.7,4,4,777.7,77777,9,999999999,0,0.0000,0,0,999.000,0.0,99.0
2015,5,18,17,0,?9?9?9?9E0?9?9?9?9*9?9?9?9?9*9?9*9*9?9*_?9?9*9?9*9,22.2,12.2,53,98090,208,1334,378,172,419,107,20593,39836,11751,220,180,4.3,6,6,777.7,77777,9,999999999,0,0.0000,0,0,999.000,0.0,99.0
2015,5,18,18,0,?9?9?9?9E0?9?9?9?9*9?9?9?9?9*9?9*9*9?9*_?9?9*9?9*9,21.9,12.1,53,98090,0,1334,376,8,0,0,900,0,0,0,180,3.5,6,6,777.7,77777,9,999999999,0,0.0000,0,0,999.000,0.0,99.0
2015,5,18,19,0,?9?9?9?9E0?9?9?9?9*9?9?9?9?9*9?9*9*9?9*_?9?9*9?9*9,21.5,12.1,54,98090,0,1334,375,0,0,0,0,0,0,0,180,2.5,6,6,777.7,77777,9,999999999,0,0.0000,0,0,999.000,0.0,99.0
2015,5,18,20,0,?9?9?9?9E0?9?9?9?9*9?9?9?9?9*9?9*9*9?9*_?9?9*9?9*9,21.2,12.1,56,98090,0,1334,373,0,0,0,0,0,0,0,180,1.9,6,6,777.7,77777,9,999999999,0,0.0000,0,0,999.000,0.0,99.0
2015,5,18,21,0,?9?9?9?9E0?9?9?9?9*9?9?9?9?9*9?9*9*9?9*_?9?9*9?9*9,20.9,12.1,57,98090,0,1334,376,0,0,0,0,0,0,0,180,1.6,7,7,777.7,77777,9,999999999,0,0.0000,0,0,999.000,0.0,99.0
2015,5,18,22,0,?9?9?9?9E0?9?9?9?9*9?9?9?9?9*9?9*9*9?9*_?9?9*9?9*9,20.5,12.0,58,98090,0,1334,374,0,0,0,0,0,0,0,180,1.6,7,7,777.7,77777,9,999999999,0,0.0000,0,0,999.000,0.0,99.0
2015,5,18,23,0,?9?9?9?9E0?9?9?9?9*9?9?9?9?9*9?9*9*9?9*_?9?9*9?9*9,20.2,12.0,59,98090,0,1334,372,0,0,0,0,0,0,0,180,1.6,7,7,777.7,77777,9,999999999,0,0.0000,0,0,999.000,0.0,99.0
2015,5,18,24,0,?9?9?9?9E0?9?9?9?9*9?9?9?9?9*9?9*9*9?9*_?9?9*9?9*9,19.9,14.9,72,98090,0,1334,374,0,0,0,0,0,0,0,180,2.1,7,7,777.7,77777,9,999999999,0,0.0000,0,0,999.000,0.0,99.0
2015,5,19,1,0,?9?9?9?9E0?9?9?9?9*9?9?9?9?9*9?9*9*9?9*_?9?9*9?9*9,19.7,15.1,74,98090,0,1334,373,0,0,0,0,0,0,0,180,2.5,7,7,777.7,77777,9,999999999,0,0.0000,0,0,999.000,0.0,99.0
2015,5,19,2,0,?9?9?9?9E0?9?9?9?9*9?9?9?9?9*9?9*9*9?9*_?9?9*9?9*9,19.5,15.3,75,98090,0,1334,373,0,0,0,0,0,0,0,180,2.7,7,7,777.7,77777,9,999999999,0,0.0000,0,0,999.000,0.0,99.0
2015,5,19,3,0,?9?9?9?9E0?9?9?9?9*9?9?9?9?9*9?9*9*9?9*_?9?9*9?9*9,19.4,15.5,77,98090,0,1334,372,0,0,0,0,0,0,0,180,2.9,7,7,777.7,77777,9,999999999,0,0.0000,0,0,999.000,0.0,99.0
2015,5,19,4,0,?9?9?9?9E0?9?9?9?9*9?9?9?9?9*9?9*9*9?9*_?9?9*9?9*9,19.2,15.6,79,98090,0,1334,372,0,0,0,0,0,0,0,180,3.0,7,7,777.7,77777,9,999999999,0,0.0000,0,0,999.000,0.0,99.0
2015,5,19,5,0,?9?9?9?9E0?9?9?9?9*9?9?9?9?9*9?9*9*9?9*_?9?9*9?9*9,19.0,15.8,81,98090,0,1334,377,0,0,0,0,0,0,0,180,3.1,8,8,777.7,77777,9,999999999,0,0.0000,0,0,999.000,0.0,99.0
2015,5,19,6,0,?9?9?9?9E0?9?9?9?9*9?9?9?9?9*9?9*9*9?9*_?9?9*9?9*9,18.9,15.9,82,98090,0,1334,376,0,0,0,0,0,0,0,180,2.6,8,8,777.7,77777,9,999999999,0,0.0000,0,0,999.000,0.0,99.0
2015,5,19,7,0,?9?9?9?9E0?9?9?9?9*9?9?9?9?9*9?9*9*9?9*_?9?9*9?9*9,18.8,16.1,84,98090,78,1334,376,0,0,0,0,0,0,0,180,2.9,8,8,777.7,77777,9,999999999,0,0.0000,0,0,999.000,0.0,99.0
2015,5,19,8,0,?9?9?9?9E0?9?9?9?9*9?9?9?9?9*9?9*9*9?9*_?9?9*9?9*9,18.7,16.2,85,98090,362,1334,375,40,0,40,4768,0,4370,47,180,2.5,8,8,777.7,77777,9,999999999,0,0.0000,0,0,999.000,0.0,99.0
2015,5,19,9,0,?9?9?9?9E0?9?9?9?9*9?9?9?9?9*9?9*9*9?9*_?9?9*9?9*9,20.3,14.5,68,98090,614,1334,382,130,0,130,15635,0,14332,90,180,2.8,8,8,777.7,77777,9,999999999,0,0.0000,0,0,999.000,0.0,99.0
2015,5,19,10,0,?9?9?9?9E0?9?9?9?9*9?9?9?9?9*9?9*9*9?9*_?9?9*9?9*9,21.0,13.6,61,98090,813,1334,384,211,5,208,25368,488,22910,109,180,2.6,8,8,777.7,77777,9,999999999,0,0.0000,0,0,999.000,0.0,99.0
2015,5,19,11,0,?9?9?9?9E0?9?9?9?9*9?9?9?9?9*9?9*9*9?9*_?9?9*9?9*9,21.7,12.7,55,98090,946,1334,387,272,9,266,32638,816,29248,119,180,2.8,8,8,777.7,77777,9,999999999,0,0.0000,0,0,999.000,0.0,99.0
2015,5,19,12,0,?9?9?9?9E0?9?9?9?9*9?9?9?9?9*9?9*9*9?9*_?9?9*9?9*9,22.2,12.1,56,98090,1004,1334,389,307,11,299,36821,1026,32859,126,180,2.7,8,8,777.7,77777,9,999999999,0,0.0000,0,0,999.000,0.0,99.0
2015,5,19,13,0,?9?9?9?9E0?9?9?9?9*9?9?9?9?9*9?9*9*9?9*_?9?9*9?9*9,22.6,11.6,48,98090,982,1334,390,313,13,304,37596,1217,33426,131,180,2.5,8,8,777.7,77777,9,999999999,0,0.0000,0,0,999.000,0.0,99.0
2015,5,19,14,0,?9?9?9?9E0?9?9?9?9*9?9?9?9?9*9?9*9*9?9*_?9?9*9?9*9,22.8,11.3,51,98090,881,1334,391,291,43,262,34904,4122,28842,126,180,2.3,8,8,777.7,77777,9,999999999,0,0.0000,0,0,999.000,0.1,99.0
2015,5,19,15,0,?9?9?9?9E0?9?9?9?9*9?9?9?9?9*9?9*9*9?9*_?9?9*9?9*9,22.6,11.5,53,98090,710,1334,390,173,4,171,20782,416,18793,102,180,2.5,8,8,777.7,77777,9,999999999,0,0.0000,0,0,999.000,0.0,99.0
2015,5,19,16,0,?9?9?9?9E0?9?9?9?9*9?9?9?9?9*9?9*9*9?9*_?9?9*9?9*9,22.6,11.6,58,98090,480,1334,390,203,147,150,24355,13975,16517,133,180,2.4,8,8,777.7,77777,9,999999999,2,0.0000,0,0,999.000,2.8,99.0
2015,5,19,17,0,?9?9?9?9E0?9?9?9?9*9?9?9?9?9*9?9*9*9?9*_?9?9*9?9*9,22.3,12.0,56,98090,206,1334,389,118,340,66,14116,32261,7225,137,180,2.7,8,8,777.7,77777,9,999999999,0,0.0000,0,0,999.000,0.1,99.0
2015,5,19,18,0,?9?9?9?9E0?9?9?9?9*9?9?9?9?9*9?9*9*9?9*_?9?9*9?9*9,22.0,12.4,58,98090,0,1334,388,16,0,0,1908,0,0,0,180,2.0,8,8,777.7,77777,9,999999999,0,0.0000,0,0,999.000,0.0,99.0
2015,5,19,19,0,?9?9?9?9E0?9?9?9?9*9?9?9?9?9*9?9*9*9?9*_?9?9*9?9*9,21.7,12.8,55,98090,0,1334,387,0,0,0,0,0,0,0,180,2.5,8,8,777.7,77777,9,999999999,0,0.0000,0,0,999.000,0.0,99.0
2015,5,19,20,0,?9?9?9?9E0?9?9?9?9*9?9?9?9?9*9?9*9*9?9*_?9?9*9?9*9,21.4,13.1,57,98090,0,1334,386,0,0,0,0,0,0,0,180,3.0,8,8,777.7,77777,9,999999999,0,0.0000,0,0,999.000,0.0,99.0
2015,5,19,21,0,?9?9?9?9E0?9?9?9?9*9?9?9?9?9*9?9*9*9?9*_?9?9*9?9*9,21.1,13.4,60,98090,0,1334,385,0,0,0,0,0,0,0,180,2.8,8,8,777.7,77777,9,999999999,0,0.0000,0,0,999.000,0.0,99.0
2015,5,19,22,0,?9?9?9?9E0?9?9?9?9*9?9?9?9?9*9?9*9*9?9*_?9?9*9?9*9,20.9,13.8,63,98090,0,1334,384,0,0,0,0,0,0,0,180,3.1,8,8,777.7,77777,9,999999999,0,0.0000,0,0,999.000,0.0,99.0
2015,5,19,23,0,?9?9?9?9E0?9?9?9?9*9?9?9?9?9*9?9*9*9?9*_?9?9*9?9*9,20.6,14.1,65,98090,0,1334,383,0,0,0,0,0,0,0,180,3.1,8,8,777.7,77777,9,999999999,0,0.0000,0,0,999.000,0.0,99.0
2015,5,19,24,0,?9?9?9?9E0?9?9?9?9*9?9?9?9?9*9?9*9*9?9*_?9?9*9?9*9,20.3,16.1,76,98090,0,1334,384,0,0,0,0,0,0,0,180,1.4,8,8,777.7,77777,9,999999999,0,0.0000,0,0,999.000,0.0,99.0
2015,5,20,1,0,?9?9?9?9E0?9?9?9?9*9?9?9?9?9*9?9*9*9?9*_?9?9*9?9*9,20.1,16.2,73,98090,0,1334,383,0,0,0,0,0,0,0,180,1.4,8,8,777.7,77777,9,999999999,0,0.0000,0,0,999.000,0.0,99.0
2015,5,20,2,0,?9?9?9?9E0?9?9?9?9*9?9?9?9?9*9?9*9*9?9*_?9?9*9?9*9,20.0,16.3,79,98090,0,1334,382,0,0,0,0,0,0,0,180,1.4,8,8,777.7,77777,9,999999999,0,0.0000,0,0,999.000,0.0,99.0
2015,5,20,3,0,?9?9?9?9E0?9?9?9?9*9?9?9?9?9*9?9*9*9?9*_?9?9*9?9*9,19.9,16.4,80,98090,0,1334,382,0,0,0,0,0,0,0,180,1.4,8,8,777.7,77777,9,999999999,0,0.0000,0,0,999.000,0.2,99.0
2015,5,20,4,0,?9?9?9?9E0?9?9?9?9*9?9?9?9?9*9?9*9*9?9*_?9?9*9?9*9,19.7,16.5,85,98090,0,1333,381,0,0,0,0,0,0,0,180,1.4,8,8,777.7,77777,9,999999999,3,0.0000,0,0,999.000,3.6,99.0
2015,5,20,5,0,?9?9?9?9E0?9?9?9?9*9?9?9?9?9*9?9*9*9?9*_?9?9*9?9*9,19.6,16.6,82,98090,0,1333,381,0,0,0,0,0,0,0,180,1.4,8,8,777.7,77777,9,999999999,0,0.0000,0,0,999.000,0.1,99.0
2015,5,20,6,0,?9?9?9?9E0?9?9?9?9*9?9?9?9?9*9?9*9*9?9*_?9?9*9?9*9,19.5,16.6,78,98090,0,1333,380,0,0,0,0,0,0,0,180,1.4,8,8,777.7,77777,9,999999999,0,0.0000,0,0,999.000,0.0,99.0
2015,5,20,7,0,?9?9?9?9E0?9?9?9?9*9?9?9?9?9*9?9*9*9?9*_?9?9*9?9*9,19.4,16.7,79,98090,75,1333,380,0,0,0,0,0,0,0,180,1.4,8,8,777.7,77777,9,999999999,0,0.0000,0,0,999.000,0.0,99.0
2015,5,20,8,0,?9?9?9?9E0?9?9?9?9*9?9?9?9?9*9?9*9*9?9*_?9?9*9?9*9,19.3,16.8,84,98090,359,1333,379,51,0,51,6175,0,5661,61,180,1.4,8,8,777.7,77777,9,999999999,0,0.0000,0,0,999.000,0.1,99.0
2015,5,20,9,0,?9?9?9?9E0?9?9?9?9*9?9?9?9?9*9?9*9*9?9*_?9?9*9?9*9,21.1,15.4,66,98090,611,1333,387,171,11,166,20498,1083,18216,115,180,2.1,8,8,777.7,77777,9,999999999,0,0.0000,0,0,999.000,0.0,99.0
2015,5,20,10,0,?9?9?9?9E0?9?9?9?9*9?9?9?9?9*9?9*9*9?9*_?9?9*9?9*9,22.1,14.7,61,98090,810,1333,391,278,54,245,33344,5126,26961,128,180,2.5,8,8,777.7,77777,9,999999999,0,0.0000,0,0,999.000,0.0,99.0
2015,5,20,11,0,?9?9?9?9E0?9?9?9?9*9?9?9?9?9*9?9*9*9?9*_?9?9*9?9*9,22.9,14.1,56,98090,943,1333,395,358,27,339,42944,2522,37301,153,180,3.2,8,8,777.7,77777,9,999999999,0,0.0000,0,0,999.000,0.0,99.0
2015,5,20,12,0,?9?9?9?9E0?9?9?9?9*9?9?9?9?9*9?9*9*9?9*_?9?9*9?9*9,23.5,13.6,52,98090,1000,1333,398,404,69,352,48470,6556,38738,149,180,4.0,8,8,777.7,77777,9,999999999,0,0.0000,0,0,999.000,0.0,99.0
2015,5,20,13,0,?9?9?9?9E0?9?9?9?9*9?9?9?9?9*9?9*9*9?9*_?9?9*9?9*9,24.0,13.2,50,98090,978,1333,400,412,84,351,49499,7968,38608,152,180,4.3,8,8,777.7,77777,9,999999999,0,0.0000,0,0,999.000,0.0,99.0
2015,5,20,14,0,?9?9?9?9E0?9?9?9?9*9?9?9?9?9*9?9*9*9?9*_?9?9*9?9*9,24.2,13.0,49,98090,878,1333,401,383,105,314,45949,9966,34522,152,180,4.9,8,8,777.7,77777,9,999999999,0,0.0000,0,0,999.000,0.0,99.0
2015,5,20,15,0,?9?9?9?9E0?9?9?9?9*9?9?9?9?9*9?9*9*9?9*_?9?9*9?9*9,24.3,12.9,49,98090,707,1333,401,317,136,245,38094,12955,26968,147,180,4.8,8,8,777.7,77777,9,999999999,0,0.0000,0,0,999.000,0.0,99.0
2015,5,20,16,0,?9?9?9?9E0?9?9?9?9*9?9?9?9?9*9?9*9*9?9*_?9?9*9?9*9,24.0,13.1,50,98090,477,1333,400,221,217,144,26564,20612,15825,128,180,5.0,8,8,777.7,77777,9,999999999,0,0.0000,0,0,999.000,0.0,99.0
2015,5,20,17,0,?9?9?9?9E0?9?9?9?9*9?9?9?9?9*9?9*9*9?9*_?9?9*9?9*9,23.5,13.6,53,98090,204,1333,398,104,328,55,12538,31153,6026,115,180,4.3,8,8,777.7,77777,9,999999999,0,0.0000,0,0,999.000,0.0,99.0
2015,5,20,18,0,?9?9?9?9E0?9?9?9?9*9?9?9?9?9*9?9*9*9?9*_?9?9*9?9*9,23.1,13.9,54,98090,0,1333,396,4,0,0,439,0,0,0,180,3.5,8,8,777.7,77777,9,999999999,0,0.0000,0,0,999.000,0.0,99.0
2015,5,20,19,0,?9?9?9?9E0?9?9?9?9*9?9?9?9?9*9?9*9*9?9*_?9?9*9?9*9,22.8,14.2,56,98090,0,1333,394,0,0,0,0,0,0,0,180,2.5,8,8,777.7,77777,9,999999999,0,0.0000,0,0,999.000,0.0,99.0
2015,5,20,20,0,?9?9?9?9E0?9?9?9?9*9?9?9?9?9*9?9*9*9?9*_?9?9*9?9*9,22.4,14.4,58,98090,0,1333,393,0,0,0,0,0,0,0,180,1.8,8,8,777.7,77777,9,999999999,0,0.0000,0,0,999.000,0.0,99.0
2015,5,20,21,0,?9?9?9?9E0?9?9?9?9*9?9?9?9?9*9?9*9*9?9*_?9?9*9?9*9,22.1,14.7,65,98090,0,1333,391,0,0,0,0,0,0,0,180,1.4,8,8,777.7,77777,9,999999999,0,0.0000,0,0,999.000,0.0,99.0
2015,5,20,22,0,?9?9?9?9E0?9?9?9?9*9?9?9?9?9*9?9*9*9?9*_?9?9*9?9*9,21.7,15.0,63,98090,0,1333,390,0,0,0,0,0,0,0,180,1.4,8,8,777.7,77777,9,999999999,0,0.0000,0,0,999.000,0.0,99.0
2015,5,20,23,0,?9?9?9?9E0?9?9?9?9*9?9?9?9?9*9?9*9*9?9*_?9?9*9?9*9,21.4,15.3,65,98090,0,1333,388,0,0,0,0,0,0,0,180,1.4,8,8,777.7,77777,9,999999999,0,0.0000,0,0,999.000,0.0,99.0
2015,5,20,24,0,?9?9?9?9E0?9?9?9?9*9?9?9?9?9*9?9*9*9?9*_?9?9*9?9*9,21.0,16.9,78,98090,0,1333,388,0,0,0,0,0,0,0,180,2.5,8,8,777.7,77777,9,999999999,0,0.0000,0,0,999.000,0.2,99.0
2015,5,21,1,0,?9?9?9?9E0?9?9?9?9*9?9?9?9?9*9?9*9*9?9*_?9?9*9?9*9,20.8,17.0,89,98090,0,1333,388,0,0,0,0,0,0,0,180,2.4,8,8,777.7,77777,9,999999999,7,0.0000,0,0,999.000,7.1,99.0
2015,5,21,2,0,?9?9?9?9E0?9?9?9?9*9?9?9?9?9*9?9*9*9?9*_?9?9*9?9*9,20.7,17.2,81,98090,0,1333,387,0,0,0,0,0,0,0,180,2.4,8,8,777.7,77777,9,999999999,0,0.0000,0,0,999.000,0.4,99.0
2015,5,21,3,0,?9?9?9?9E0?9?9?9?9*9?9?9?9?9*9?9*9*9?9*_?9?9*9?9*9,20.5,17.3,78,98090,0,1333,386,0,0,0,0,0,0,0,180,2.4,8,8,777.7,77777,9,999999999,0,0.0000,0,0,999.000,0.0,99.0
2015,5,21,4,0,?9?9?9?9E0?9?9?9?9*9?9?9?9?9*9?9*9*9?9*_?9?9*9?9*9,20.3,17.5,80,98090,0,1333,385,0,0,0,0,0,0,0,180,2.5,8,8,777.7,77777,9,999999999,0,0.0000,0,0,999.000,0.0,99.0
2015,5,21,5,0,?9?9?9?9E0?9?9?9?9*9?9?9?9?9*9?9*9*9?9*_?9?9*9?9*9,20.1,17.6,86,98090,0,1333,385,0,0,0,0,0,0,0,180,2.7,8,8,777.7,77777,9,999999999,0,0.0000,0,0,999.000,0.0,99.0
2015,5,21,6,0,?9?9?9?9E0?9?9?9?9*9?9?9?9?9*9?9*9*9?9*_?9?9*9?9*9,20.0,17.7,87,98090,0,1333,384,0,0,0,0,0,0,0,180,2.8,8,8,777.7,77777,9,999999999,0,0.0000,0,0,999.000,0.1,99.0
2015,5,21,7,0,?9?9?9?9E0?9?9?9?9*9?9?9?9?9*9?9*9*9?9*_?9?9*9?9*9,19.9,17.8,83,98090,73,1333,384,0,0,0,0,0,0,0,180,2.4,8,8,777.7,77777,9,999999999,0,0.0000,0,0,999.000,0.0,99.0
2015,5,21,8,0,?9?9?9?9E0?9?9?9?9*9?9?9?9?9*9?9*9*9?9*_?9?9*9?9*9,19.8,17.9,84,98090,357,1333,383,40,0,40,4741,0,4346,47,180,2.4,8,8,777.7,77777,9,999999999,0,0.0000,0,0,999.000,0.0,99.0
2015,5,21,9,0,?9?9?9?9E0?9?9?9?9*9?9?9?9?9*9?9*9*9?9*_?9?9*9?9*9,21.3,16.7,72,98090,608,1333,390,133,0,133,15932,0,14605,93,180,2.5,8,8,777.7,77777,9,999999999,0,0.0000,0,0,999.000,0.0,99.0
2015,5,21,10,0,?9?9?9?9E0?9?9?9?9*9?9?9?9?9*9?9*9*9?9*_?9?9*9?9*9,22.0,16.0,71,98090,807,1333,393,217,6,213,25985,574,23418,112,180,2.9,8,8,777.7,77777,9,999999999,0,0.0000,0,0,999.000,0.0,99.0
2015,5,21,11,0,?9?9?9?9E0?9?9?9?9*9?9?9?9?9*9?9*9*9?9*_?9?9*9?9*9,22.7,15.5,66,98090,939,1333,396,279,10,272,33500,930,29950,123,180,2.4,8,8,777.7,77777,9,999999999,0,0.0000,0,0,999.000,0.0,99.0
2015,5,21,12,0,?9?9?9?9E0?9?9?9?9*9?9?9?9?9*9?9*9*9?9*_?9?9*9?9*9,23.2,15.0,59,98090,996,1333,398,315,12,306,37829,1168,33665,130,180,2.4,8,8,777.7,77777,9,999999999,0,0.0000,0,0,999.000,0.0,99.0
2015,5,21,13,0,?9?9?9?9E0?9?9?9?9*9?9?9?9?9*9?9*9*9?9*_?9?9*9?9*9,23.6,14.6,57,98090,974,1333,399,322,15,311,38636,1398,34234,136,180,2.4,8,8,777.7,77777,9,999999999,0,0.0000,0,0,999.000,0.0,99.0
2015,5,21,14,0,?9?9?9?9E0?9?9?9?9*9?9?9?9?9*9?9*9*9?9*_?9?9*9?9*9,23.8,14.4,55,98090,875,1333,400,299,18,287,35862,1705,31578,139,180,2.4,8,8,777.7,77777,9,999999999,0,0.0000,0,0,999.000,0.0,99.0
2015,5,21,15,0,?9?9?9?9E0?9?9?9?9*9?9?9?9?9*9?9*9*9?9*_?9?9*9?9*9,23.8,14.4,55,98090,704,1333,400,248,29,232,29718,2740,25566,140,180,2.4,8,8,777.7,77777,9,999999999,0,0.0000,0,0,999.000,0.0,99.0
2015,5,21,16,0,?9?9?9?9E0?9?9?9?9*9?9?9?9?9*9?9*9*9?9*_?9?9*9?9*9,23.6,14.6,56,98090,475,1333,400,172,80,144,20699,7592,15848,129,180,2.4,8,8,777.7,77777,9,999999999,0,0.0000,0,0,999.000,0.0,99.0
2015,5,21,17,0,?9?9?9?9E0?9?9?9?9*9?9?9?9?9*9?9*9*9?9*_?9?9*9?9*9,23.2,15.0,63,98090,202,1333,398,81,200,51,9731,19041,5609,108,180,2.4,8,8,777.7,77777,9,999999999,0,0.0000,0,0,999.000,0.0,99.0
2015,5,21,18,0,?9?9?9?9E0?9?9?9?9*9?9?9?9?9*9?9*9*9?9*_?9?9*9?9*9,23.0,15.2,60,98090,0,1333,397,3,0,0,323,0,0,0,180,2.4,8,8,777.7,77777,9,999999999,0,0.0000,0,0,999.000,0.0,99.0
2015,5,21,19,0,?9?9?9?9E0?9?9?9?9*9?9?9?9?9*9?9*9*9?9*_?9?9*9?9*9,22.7,15.4,66,98090,0,1333,396,0,0,0,0,0,0,0,180,2.4,8,8,777.7,77777,9,999999999,0,0.0000,0,0,999.000,0.1,99.0
2015,5,21,20,0,?9?9?9?9E0?9?9?9?9*9?9?9?9?9*9?9*9*9?9*_?9?9*9?9*9,22.5,15.6,63,98090,0,1333,395,0,0,0,0,0,0,0,180,2.4,8,8,777.7,77777,9,999999999,0,0.0000,0,0,999.000,0.0,99.0
2015,5,21,21,0,?9?9?9?9E0?9?9?9?9*9?9?9?9?9*9?9*9*9?9*_?9?9*9?9*9,22.3,15.8,65,98090,0,1333,394,0,0,0,0,0,0,0,180,2.4,8,8,777.7,77777,9,999999999,0,0.0000,0,0,999.000,0.0,99.0
2015,5,21,22,0,?9?9?9?9E0?9?9?9?9*9?9?9?9?9*9?9*9*9?9*_?9?9*9?9*9,22.0,16.0,67,98090,0,1333,393,0,0,0,0,0,0,0,180,2.4,8,8,777.7,77777,9,999999999,0,0.0000,0,0,999.000,0.0,99.0
2015,5,21,23,0,?9?9?9?9E0?9?9?9?9*9?9?9?9?9*9?9*9*9?9*_?9?9*9?9*9,21.8,16.2,68,98090,0,1333,392,0,0,0,0,0,0,0,180,2.4,8,8,777.7,77777,9,999999999,0,0.0000,0,0,999.000,0.0,99.0
2015,5,21,24,0,?9?9?9?9E0?9?9?9?9*9?9?9?9?9*9?9*9*9?9*_?9?9*9?9*9,21.6,18.1,81,98090,0,1333,393,0,0,0,0,0,0,0,180,2.2,8,8,777.7,77777,9,999999999,0,0.0000,0,0,999.000,0.0,99.0
2015,5,22,1,0,?9?9?9?9E0?9?9?9?9*9?9?9?9?9*9?9*9*9?9*_?9?9*9?9*9,21.4,18.1,86,98090,0,1333,392,0,0,0,0,0,0,0,180,2.2,8,8,777.7,77777,9,999999999,2,0.0000,0,0,999.000,2.8,99.0
2015,5,22,2,0,?9?9?9?9E0?9?9?9?9*9?9?9?9?9*9?9*9*9?9*_?9?9*9?9*9,21.3,18.2,82,98090,0,1333,392,0,0,0,0,0,0,0,180,2.2,8,8,777.7,77777,9,999999999,0,0.0000,0,0,999.000,0.1,99.0
2015,5,22,3,0,?9?9?9?9E0?9?9?9?9*9?9?9?9?9*9?9*9*9?9*_?9?9*9?9*9,21.2,18.2,83,98090,0,1333,391,0,0,0,0,0,0,0,180,2.2,8,8,777.7,77777,9,999999999,0,0.0000,0,0,999.000,0.0,99.0
2015,5,22,4,0,?9?9?9?9E0?9?9?9?9*9?9?9?9?9*9?9*9*9?9*_?9?9*9?9*9,21.1,18.2,79,98090,0,1332,390,0,0,0,0,0,0,0,180,2.2,8,8,777.7,77777,9,999999999,0,0.0000,0,0,999.000,0.0,99.0
2015,5,22,5,0,?9?9?9?9E0?9?9?9?9*9?9?9?9?9*9?9*9*9?9*_?9?9*9?9*9,21.0,18.3,80,98090,0,1332,390,0,0,0,0,0,0,0,180,2.2,8,8,777.7,77777,9,999999999,0,0.0000,0,0,999.000,0.0,99.0
2015,5,22,6,0,?9?9?9?9E0?9?9?9?9*9?9?9?9?9*9?9*9*9?9*_?9?9*9?9*9,20.9,18.3,80,98090,0,1332,389,0,0,0,0,0,0,0,180,2.2,8,8,777.7,77777,9,999999999,0,0.0000,0,0,999.000,0.0,99.0
2015,5,22,7,0,?9?9?9?9E0?9?9?9?9*9?9?9?9?9*9?9*9*9?9*_?9?9*9?9*9,20.8,18.3,81,98090,71,1332,389,0,0,0,0,0,0,0,180,2.2,8,8,777.7,77777,9,999999999,0,0.0000,0,0,999.000,0.0,99.0
2015,5,22,8,0,?9?9?9?9E0?9?9?9?9*9?9?9?9?9*9?9*9*9?9*_?9?9*9?9*9,20.7,18.4,81,98090,354,1332,389,42,0,42,5059,0,4638,51,180,2.2,8,8,777.7,77777,9,999999999,0,0.0000,0,0,999.000,0.0,99.0
2015,5,22,9,0,?9?9?9?9E0?9?9?9?9*9?9?9?9?9*9?9*9*9?9*_?9?9*9?9*9,21.9,18.0,75,98090,605,1332,394,134,0,134,16112,0,14770,94,180,2.2,8,8,777.7,77777,9,999999999,0,0.0000,0,0,999.000,0.0,99.0
2015,5,22,10,0,?9?9?9?9E0?9?9?9?9*9?9?9?9?9*9?9*9*9?9*_?9?9*9?9*9,22.7,17.8,71,98090,803,1332,398,279,39,255,33428,3748,28028,135,180,2.2,8,8,777.7,77777,9,999999999,0,0.0000,0,0,999.000,0.0,99.0
2015,5,22,11,0,?9?9?9?9E0?9?9?9?9*9?9?9?9?9*9?9*9*9?9*_?9?9*9?9*9,23.5,17.5,67,98090,936,1332,396,424,133,331,50938,12673,36390,150,180,2.2,7,7,777.7,77777,9,999999999,0,0.0000,0,0,999.000,0.0,99.0
2015,5,22,12,0,?9?9?9?9E0?9?9?9?9*9?9?9?9?9*9?9*9*9?9*_?9?9*9?9*9,24.6,17.2,62,98090,993,1332,387,633,485,272,75968,46048,29906,116,180,2.2,3,3,777.7,77777,9,999999999,0,0.0000,0,0,999.000,0.0,99.0
2015,5,22,13,0,?9?9?9?9E0?9?9?9?9*9?9?9?9?9*9?9*9*9?9*_?9?9*9?9*9,25.5,16.9,58,98090,971,1332,375,712,796,131,85386,75647,14433,57,180,2.8,0,0,777.7,77777,9,999999999,0,0.0000,0,0,999.000,0.0,99.0
2015,5,22,14,0,?9?9?9?9E0?9?9?9?9*9?9?9?9?9*9?9*9*9?9*_?9?9*9?9*9,25.9,16.7,56,98090,872,1332,390,636,817,102,76368,77571,11249,50,180,3.8,2,2,777.7,77777,9,999999999,0,0.0000,0,0,999.000,0.0,99.0
2015,5,22,15,0,?9?9?9?9E0?9?9?9?9*9?9?9?9?9*9?9*9*9?9*_?9?9*9?9*9,26.1,16.7,56,98090,702,1332,395,512,820,80,61424,77904,8831,49,180,4.2,3,3,777.7,77777,9,999999999,0,0.0000,0,0,999.000,0.0,99.0
2015,5,22,16,0,?9?9?9?9E0?9?9?9?9*9?9?9?9?9*9?9*9*9?9*_?9?9*9?9*9,25.9,16.8,56,98090,472,1332,400,347,611,131,41676,58022,14422,118,180,3.6,5,5,777.7,77777,9,999999999,0,0.0000,0,0,999.000,0.0,99.0
2015,5,22,17,0,?9?9?9?9E0?9?9?9?9*9?9?9?9?9*9?9*9*9?9*_?9?9*9?9*9,25.4,16.9,58,98090,201,1332,401,170,352,118,20404,33416,12942,252,180,2.9,6,6,777.7,77777,9,999999999,0,0.0000,0,0,999.000,0.0,99.0
2015,5,22,18,0,?9?9?9?9E0?9?9?9?9*9?9?9?9?9*9?9*9*9?9*_?9?9*9?9*9,25.0,17.1,60,98090,0,1332,399,5,0,0,584,0,0,0,180,2.2,6,6,777.7,77777,9,999999999,0,0.0000,0,0,999.000,0.0,99.0
2015,5,22,19,0,?9?9?9?9E0?9?9?9?9*9?9?9?9?9*9?9*9*9?9*_?9?9*9?9*9,24.5,17.2,62,98090,0,1332,397,0,0,0,0,0,0,0,180,2.2,6,6,777.7,77777,9,999999999,0,0.0000,0,0,999.000,0.0,99.0
2015,5,22,20,0,?9?9?9?9E0?9?9?9?9*9?9?9?9?9*9?9*9*9?9*_?9?9*9?9*9,24.1,17.3,64,98090,0,1332,394,0,0,0,0,0,0,0,180,2.2,6,6,777.7,77777,9,999999999,0,0.0000,0,0,999.000,0.0,99.0
2015,5,22,21,0,?9?9?9?9E0?9?9?9?9*9?9?9?9?9*9?9*9*9?9*_?9?9*9?9*9,23.6,17.5,70,98090,0,1332,397,0,0,0,0,0,0,0,180,2.2,7,7,777.7,77777,9,999999999,0,0.0000,0,0,999.000,0.1,99.0
2015,5,22,22,0,?9?9?9?9E0?9?9?9?9*9?9?9?9?9*9?9*9*9?9*_?9?9*9?9*9,23.2,17.6,73,98090,0,1332,395,0,0,0,0,0,0,0,180,2.2,7,7,777.7,77777,9,999999999,0,0.0000,0,0,999.000,0.0,99.0
2015,5,22,23,0,?9?9?9?9E0?9?9?9?9*9?9?9?9?9*9?9*9*9?9*_?9?9*9?9*9,22.7,17.8,71,98090,0,1332,392,0,0,0,0,0,0,0,180,2.2,7,7,777.7,77777,9,999999999,0,0.0000,0,0,999.000,0.0,99.0
2015,5,22,24,0,?9?9?9?9E0?9?9?9?9*9?9?9?9?9*9?9*9*9?9*_?9?9*9?9*9,22.3,18.9,79,98090,0,1332,391,0,0,0,0,0,0,0,180,2.3,7,7,777.7,77777,9,999999999,0,0.0000,0,0,999.000,0.0,99.0
2015,5,23,1,0,?9?9?9?9E0?9?9?9?9*9?9?9?9?9*9?9*9*9?9*_?9?9*9?9*9,22.1,18.9,77,98090,0,1332,390,0,0,0,0,0,0,0,180,2.3,7,7,777.7,77777,9,999999999,0,0.0000,0,0,999.000,0.0,99.0
2015,5,23,2,0,?9?9?9?9E0?9?9?9?9*9?9?9?9?9*9?9*9*9?9*_?9?9*9?9*9,21.8,18.9,78,98090,0,1332,389,0,0,0,0,0,0,0,180,2.3,7,7,777.7,77777,9,999999999,0,0.0000,0,0,999.000,0.0,99.0
2015,5,23,3,0,?9?9?9?9E0?9?9?9?9*9?9?9?9?9*9?9*9*9?9*_?9?9*9?9*9,21.6,18.8,78,98090,0,1332,388,0,0,0,0,0,0,0,180,2.3,7,7,777.7,77777,9,999999999,0,0.0000,0,0,999.000,0.0,99.0
2015,5,23,4,0,?9?9?9?9E0?9?9?9?9*9?9?9?9?9*9?9*9*9?9*_?9?9*9?9*9,21.4,18.8,79,98090,0,1332,387,0,0,0,0,0,0,0,180,2.3,7,7,777.7,77777,9,999999999,0,0.0000,0,0,999.000,0.0,99.0
2015,5,23,5,0,?9?9?9?9E0?9?9?9?9*9?9?9?9?9*9?9*9*9?9*_?9?9*9?9*9,21.2,18.8,82,98090,0,1332,392,0,0,0,0,0,0,0,180,2.3,8,8,777.7,77777,9,999999999,0,0.0000,0,0,999.000,0.0,99.0
2015,5,23,6,0,?9?9?9?9E0?9?9?9?9*9?9?9?9?9*9?9*9*9?9*_?9?9*9?9*9,21.0,18.7,82,98090,0,1332,391,0,0,0,0,0,0,0,180,2.3,8,8,777.7,77777,9,999999999,0,0.0000,0,0,999.000,0.1,99.0
2015,5,23,7,0,?9?9?9?9E0?9?9?9?9*9?9?9?9?9*9?9*9*9?9*_?9?9*9?9*9,20.9,18.7,82,98090,69,1332,390,0,0,0,0,0,0,0,180,2.3,8,8,777.7,77777,9,999999999,0,0.0000,0,0,999.000,0.1,99.0
2015,5,23,8,0,?9?9?9?9E0?9?9?9?9*9?9?9?9?9*9?9*9*9?9*_?9?9*9?9*9,20.7,18.7,88,98090,351,1332,389,45,0,45,5402,0,4952,55,180,2.3,8,8,777.7,77777,9,999999999,10,0.0000,0,0,999.000,10.4,99.0
2015,5,23,9,0,?9?9?9?9E0?9?9?9?9*9?9?9?9?9*9?9*9*9?9*_?9?9*9?9*9,22.0,18.9,80,98090,602,1332,396,155,10,151,18612,943,16568,106,180,2.3,8,8,777.7,77777,9,999999999,0,0.0000,0,0,999.000,0.3,99.0
2015,5,23,10,0,?9?9?9?9E0?9?9?9?9*9?9?9?9?9*9?9*9*9?9*_?9?9*9?9*9,22.7,19.0,78,98090,800,1332,400,254,29,237,30517,2730,26077,126,180,2.3,8,8,777.7,77777,9,999999999,0,0.0000,0,0,999.000,0.0,99.0
2015,5,23,11,0,?9?9?9?9E0?9?9?9?9*9?9?9?9?9*9?9*9*9?9*_?9?9*9?9*9,23.3,19.1,75,98090,932,1332,404,329,27,310,39426,2537,34085,141,180,2.3,8,8,777.7,77777,9,999999999,0,0.0000,0,0,999.000,0.0,99.0
2015,5,23,12,0,?9?9?9?9E0?9?9?9?9*9?9?9?9?9*9?9*9*9?9*_?9?9*9?9*9,23.8,19.2,74,98090,989,1332,406,371,33,347,44563,3146,38143,149,180,2.4,8,8,777.7,77777,9,999999999,0,0.0000,0,0,999.000,0.0,99.0
2015,5,23,13,0,?9?9?9?9E0?9?9?9?9*9?9?9?9?9*9?9*9*9?9*_?9?9*9?9*9,24.1,19.2,73,98090,968,1332,408,379,48,345,45530,4541,37916,151,180,2.5,8,8,777.7,77777,9,999999999,0,0.0000,0,0,999.000,0.0,99.0
2015,5,23,14,0,?9?9?9?9E0?9?9?9?9*9?9?9?9?9*9?9*9*9?9*_?9?9*9?9*9,24.3,19.3,73,98090,869,1332,409,352,60,313,42256,5683,34443,153,180,3.1,8,8,777.7,77777,9,999999999,0,0.0000,0,0,999.000,0.0,99.0
2015,5,23,15,0,?9?9?9?9E0?9?9?9?9*9?9?9?9?9*9?9*9*9?9*_?9?9*9?9*9,24.4,19.3,75,98090,699,1332,409,292,106,236,34988,10069,25958,143,180,4.2,8,8,777.7,77777,9,999999999,0,0.0000,0,0,999.000,0.2,99.0
2015,5,23,16,0,?9?9?9?9E0?9?9?9?9*9?9?9?9?9*9?9*9*9?9*_?9?9*9?9*9,24.2,19.2,73,98090,470,1332,408,203,174,141,24317,16492,15560,128,180,3.7,8,8,777.7,77777,9,999999999,0,0.0000,0,0,999.000,0.0,99.0
2015,5,23,17,0,?9?9?9?9E0?9?9?9?9*9?9?9?9?9*9?9*9*9?9*_?9?9*9?9*9,23.8,19.2,76,98090,199,1332,406,95,215,63,11347,20441,6906,135,180,2.3,8,8,777.7,77777,9,999999999,0,0.0000,0,0,999.000,0.7,99.0
2015,5,23,18,0,?9?9?9?9E0?9?9?9?9*9?9?9?9?9*9?9*9*9?9*_?9?9*9?9*9,23.5,19.1,77,98090,0,1332,405,3,0,0,338,0,0,0,180,2.3,8,8,777.7,77777,9,999999999,0,0.0000,0,0,999.000,0.2,99.0
2015,5,23,19,0,?9?9?9?9E0?9?9?9?9*9?9?9?9?9*9?9*9*9?9*_?9?9*9?9*9,23.2,19.1,77,98090,0,1332,403,0,0,0,0,0,0,0,180,2.3,8,8,777.7,77777,9,999999999,0,0.0000,0,0,999.000,0.0,99.0
2015,5,23,20,0,?9?9?9?9E0?9?9?9?9*9?9?9?9?9*9?9*9*9?9*_?9?9*9?9*9,23.0,19.0,75,98090,0,1332,401,0,0,0,0,0,0,0,180,2.3,8,8,777.7,77777,9,999999999,0,0.0000,0,0,999.000,0.0,99.0
2015,5,23,21,0,?9?9?9?9E0?9?9?9?9*9?9?9?9?9*9?9*9*9?9*_?9?9*9?9*9,22.7,19.0,76,98090,0,1332,400,0,0,0,0,0,0,0,180,2.3,8,8,777.7,77777,9,999999999,0,0.0000,0,0,999.000,0.0,99.0
2015,5,23,22,0,?9?9?9?9E0?9?9?9?9*9?9?9?9?9*9?9*9*9?9*_?9?9*9?9*9,22.4,19.0,77,98090,0,1332,398,0,0,0,0,0,0,0,180,2.3,8,8,777.7,77777,9,999999999,0,0.0000,0,0,999.000,0.0,99.0
2015,5,23,23,0,?9?9?9?9E0?9?9?9?9*9?9?9?9?9*9?9*9*9?9*_?9?9*9?9*9,22.1,18.9,77,98090,0,1332,397,0,0,0,0,0,0,0,180,2.3,8,8,777.7,77777,9,999999999,0,0.0000,0,0,999.000,0.0,99.0
2015,5,23,24,0,?9?9?9?9E0?9?9?9?9*9?9?9?9?9*9?9*9*9?9*_?9?9*9?9*9,21.8,18.7,83,98090,0,1332,395,0,0,0,0,0,0,0,180,1.9,8,8,777.7,77777,9,999999999,0,0.0000,0,0,999.000,0.1,99.0
2015,5,24,1,0,?9?9?9?9E0?9?9?9?9*9?9?9?9?9*9?9*9*9?9*_?9?9*9?9*9,21.7,18.7,79,98090,0,1332,394,0,0,0,0,0,0,0,180,1.9,8,8,777.7,77777,9,999999999,0,0.0000,0,0,999.000,0.0,99.0
2015,5,24,2,0,?9?9?9?9E0?9?9?9?9*9?9?9?9?9*9?9*9*9?9*_?9?9*9?9*9,21.6,18.7,80,98090,0,1332,393,0,0,0,0,0,0,0,180,1.9,8,8,777.7,77777,9,999999999,0,0.0000,0,0,999.000,0.0,99.0
2015,5,24,3,0,?9?9?9?9E0?9?9?9?9*9?9?9?9?9*9?9*9*9?9*_?9?9*9?9*9,21.4,18.7,84,98090,0,1332,393,0,0,0,0,0,0,0,180,1.9,8,8,777.7,77777,9,999999999,0,0.0000,0,0,999.000,0.0,99.0
2015,5,24,4,0,?9?9?9?9E0?9?9?9?9*9?9?9?9?9*9?9*9*9?9*_?9?9*9?9*9,21.3,18.7,81,98090,0,1331,392,0,0,0,0,0,0,0,180,1.9,8,8,777.7,77777,9,999999999,0,0.0000,0,0,999.000,0.0,99.0
2015,5,24,5,0,?9?9?9?9E0?9?9?9?9*9?9?9?9?9*9?9*9*9?9*_?9?9*9?9*9,21.1,18.6,81,98090,0,1331,391,0,0,0,0,0,0,0,180,1.9,8,8,777.7,77777,9,999999999,0,0.0000,0,0,999.000,0.0,99.0
2015,5,24,6,0,?9?9?9?9E0?9?9?9?9*9?9?9?9?9*9?9*9*9?9*_?9?9*9?9*9,21.0,18.6,82,98090,0,1331,391,0,0,0,0,0,0,0,180,1.9,8,8,777.7,77777,9,999999999,0,0.0000,0,0,999.000,0.0,99.0
2015,5,24,7,0,?9?9?9?9E0?9?9?9?9*9?9?9?9?9*9?9*9*9?9*_?9?9*9?9*9,20.9,18.6,86,98090,67,1331,390,0,0,0,0,0,0,0,180,1.9,8,8,777.7,77777,9,999999999,0,0.0000,0,0,999.000,0.0,99.0
2015,5,24,8,0,?9?9?9?9E0?9?9?9?9*9?9?9?9?9*9?9*9*9?9*_?9?9*9?9*9,20.9,18.6,87,98090,349,1331,390,62,0,62,7393,0,6777,75,180,1.9,8,8,777.7,77777,9,999999999,0,0.0000,0,0,999.000,0.0,99.0
2015,5,24,9,0,?9?9?9?9E0?9?9?9?9*9?9?9?9?9*9?9*9*9?9*_?9?9*9?9*9,22.6,18.7,75,98090,599,1331,393,215,68,185,25800,6432,20304,131,180,1.9,7,7,777.7,77777,9,999999999,0,0.0000,0,0,999.000,0.0,99.0
2015,5,24,10,0,?9?9?9?9E0?9?9?9?9*9?9?9?9?9*9?9*9*9?9*_?9?9*9?9*9,23.6,18.7,72,98090,797,1331,394,353,116,284,42418,11022,31249,151,180,1.9,6,6,777.7,77777,9,999999999,0,0.0000,0,0,999.000,0.0,99.0
2015,5,24,11,0,?9?9?9?9E0?9?9?9?9*9?9?9?9?9*9?9*9*9?9*_?9?9*9?9*9,24.4,18.7,69,98090,929,1331,398,457,123,371,54859,11720,40822,169,180,2.0,6,6,777.7,77777,9,999999999,0,0.0000,0,0,999.000,0.0,99.0
2015,5,24,12,0,?9?9?9?9E0?9?9?9?9*9?9?9?9?9*9?9*9*9?9*_?9?9*9?9*9,25.0,18.8,67,98090,986,1331,401,517,150,406,62038,14267,44632,174,180,3.0,6,6,777.7,77777,9,999999999,0,0.0000,0,0,999.000,0.0,99.0
2015,5,24,13,0,?9?9?9?9E0?9?9?9?9*9?9?9?9?9*9?9*9*9?9*_?9?9*9?9*9,25.5,18.8,66,98090,965,1331,404,528,297,313,63397,28204,34453,138,180,3.5,6,6,777.7,77777,9,999999999,0,0.0000,0,0,999.000,0.0,99.0
2015,5,24,14,0,?9?9?9?9E0?9?9?9?9*9?9?9?9?9*9?9*9*9?9*_?9?9*9?9*9,25.7,18.8,65,98090,866,1331,405,490,362,255,58835,34408,28027,125,180,3.2,6,6,777.7,77777,9,999999999,0,0.0000,0,0,999.000,0.0,99.0
2015,5,24,15,0,?9?9?9?9E0?9?9?9?9*9?9?9?9?9*9?9*9*9?9*_?9?9*9?9*9,25.8,18.8,65,98090,696,1331,405,406,462,164,48698,43913,18058,100,180,3.7,6,6,777.7,77777,9,999999999,0,0.0000,0,0,999.000,0.0,99.0
2015,5,24,16,0,?9?9?9?9E0?9?9?9?9*9?9?9?9?9*9?9*9*9?9*_?9?9*9?9*9,25.5,18.8,66,98090,468,1331,409,282,432,130,33811,41028,14318,118,180,4.0,7,7,777.7,77777,9,999999999,0,0.0000,0,0,999.000,0.0,99.0
2015,5,24,17,0,?9?9?9?9E0?9?9?9?9*9?9?9?9?9*9?9*9*9?9*_?9?9*9?9*9,25.0,18.8,71,98090,197,1331,412,131,303,87,15724,28818,9524,188,180,3.9,8,8,777.7,77777,9,999999999,0,0.0000,0,0,999.000,0.2,99.0
2015,5,24,18,0,?9?9?9?9E0?9?9?9?9*9?9?9?9?9*9?9*9*9?9*_?9?9*9?9*9,24.6,18.7,73,98090,0,1331,410,4,0,0,446,0,0,0,180,4.2,8,8,777.7,77777,9,999999999,0,0.0000,0,0,999.000,0.0,99.0
2015,5,24,19,0,?9?9?9?9E0?9?9?9?9*9?9?9?9?9*9?9*9*9?9*_?9?9*9?9*9,24.1,18.7,70,98090,0,1331,407,0,0,0,0,0,0,0,180,3.0,8,8,777.7,77777,9,999999999,0,0.0000,0,0,999.000,0.0,99.0
2015,5,24,20,0,?9?9?9?9E0?9?9?9?9*9?9?9?9?9*9?9*9*9?9*_?9?9*9?9*9,23.7,18.7,84,98090,0,1331,405,0,0,0,0,0,0,0,180,2.5,8,8,777.7,77777,9,999999999,7,0.0000,0,0,999.000,7.1,99.0
2015,5,24,21,0,?9?9?9?9E0?9?9?9?9*9?9?9?9?9*9?9*9*9?9*_?9?9*9?9*9,23.2,18.7,77,98090,0,1331,403,0,0,0,0,0,0,0,180,1.9,8,8,777.7,77777,9,999999999,0,0.0000,0,0,999.000,0.4,99.0
2015,5,24,22,0,?9?9?9?9E0?9?9?9?9*9?9?9?9?9*9?9*9*9?9*_?9?9*9?9*9,22.8,18.7,75,98090,0,1331,400,0,0,0,0,0,0,0,180,1.9,8,8,777.7,77777,9,999999999,0,0.0000,0,0,999.000,0.0,99.0
2015,5,24,23,0,?9?9?9?9E0?9?9?9?9*9?9?9?9?9*9?9*9*9?9*_?9?9*9?9*9,22.3,18.7,81,98090,0,1331,398,0,0,0,0,0,0,0,180,1.9,8,8,777.7,77777,9,999999999,0,0.0000,0,0,999.000,0.1,99.0
2015,5,24,24,0,?9?9?9?9E0?9?9?9?9*9?9?9?9?9*9?9*9*9?9*_?9?9*9?9*9,21.9,19.6,86,98090,0,1331,396,0,0,0,0,0,0,0,180,1.7,8,8,777.7,77777,9,999999999,0,0.0000,0,0,999.000,0.5,99.0
2015,5,25,1,0,?9?9?9?9E0?9?9?9?9*9?9?9?9?9*9?9*9*9?9*_?9?9*9?9*9,21.6,19.5,93,98090,0,1331,395,0,0,0,0,0,0,0,180,1.7,8,8,777.7,77777,9,999999999,12,0.0000,0,0,999.000,12.8,99.0
2015,5,25,2,0,?9?9?9?9E0?9?9?9?9*9?9?9?9?9*9?9*9*9?9*_?9?9*9?9*9,21.4,19.5,87,98090,0,1331,394,0,0,0,0,0,0,0,180,1.7,8,8,777.7,77777,9,999999999,0,0.0000,0,0,999.000,0.1,99.0
2015,5,25,3,0,?9?9?9?9E0?9?9?9?9*9?9?9?9?9*9?9*9*9?9*_?9?9*9?9*9,21.2,19.5,88,98090,0,1331,393,0,0,0,0,0,0,0,180,1.7,8,8,777.7,77777,9,999999999,0,0.0000,0,0,999.000,0.0,99.0
2015,5,25,4,0,?9?9?9?9E0?9?9?9?9*9?9?9?9?9*9?9*9*9?9*_?9?9*9?9*9,21.0,19.4,88,98090,0,1331,391,0,0,0,0,0,0,0,180,1.7,8,8,777.7,77777,9,999999999,0,0.0000,0,0,999.000,0.1,99.0
2015,5,25,5,0,?9?9?9?9E0?9?9?9?9*9?9?9?9?9*9?9*9*9?9*_?9?9*9?9*9,20.8,19.4,86,98090,0,1331,390,0,0,0,0,0,0,0,180,1.7,8,8,777.7,77777,9,999999999,0,0.0000,0,0,999.000,0.0,99.0
2015,5,25,6,0,?9?9?9?9E0?9?9?9?9*9?9?9?9?9*9?9*9*9?9*_?9?9*9?9*9,20.6,19.3,90,98090,0,1331,389,0,0,0,0,0,0,0,180,1.7,8,8,777.7,77777,9,999999999,0,0.0000,0,0,999.000,0.1,99.0
2015,5,25,7,0,?9?9?9?9E0?9?9?9?9*9?9?9?9?9*9?9*9*9?9*_?9?9*9?9*9,20.4,19.3,90,98090,65,1331,388,0,0,0,0,0,0,0,180,1.7,8,8,777.7,77777,9,999999999,0,0.0000,0,0,999.000,0.0,99.0
2015,5,25,8,0,?9?9?9?9E0?9?9?9?9*9?9?9?9?9*9?9*9*9?9*_?9?9*9?9*9,20.3,19.3,91,98090,346,1331,387,66,0,66,7955,0,7292,81,180,1.7,8,8,777.7,77777,9,999999999,0,0.0000,0,0,999.000,0.0,99.0
2015,5,25,9,0,?9?9?9?9E0?9?9?9?9*9?9?9?9?9*9?9*9*9?9*_?9?9*9?9*9,22.3,19.7,81,98090,596,1331,388,234,102,189,28118,9671,20768,134,180,1.7,6,6,777.7,77777,9,999999999,0,0.0000,0,0,999.000,0.0,99.0
2015,5,25,10,0,?9?9?9?9E0?9?9?9?9*9?9?9?9?9*9?9*9*9?9*_?9?9*9?9*9,23.4,19.9,78,98090,793,1331,394,386,167,287,46355,15878,31535,153,180,1.8,6,6,777.7,77777,9,999999999,0,0.0000,0,0,999.000,0.0,99.0
2015,5,25,11,0,?9?9?9?9E0?9?9?9?9*9?9?9?9?9*9?9*9*9?9*_?9?9*9?9*9,24.3,20.0,75,98090,926,1331,396,500,283,303,60016,26864,33385,139,180,2.8,5,5,777.7,77777,9,999999999,0,0.0000,0,0,999.000,0.0,99.0
2015,5,25,12,0,?9?9?9?9E0?9?9?9?9*9?9?9?9?9*9?9*9*9?9*_?9?9*9?9*9,25.0,20.2,73,98090,983,1331,400,566,352,306,67903,33483,33614,132,180,3.7,5,5,777.7,77777,9,999999999,0,0.0000,0,0,999.000,0.0,99.0
2015,5,25,13,0,?9?9?9?9E0?9?9?9?9*9?9?9?9?9*9?9*9*9?9*_?9?9*9?9*9,25.5,20.3,72,98090,962,1331,402,578,420,275,69406,39865,30274,121,180,4.2,5,5,777.7,77777,9,999999999,0,0.0000,0,0,999.000,0.0,99.0
2015,5,25,14,0,?9?9?9?9E0?9?9?9?9*9?9?9?9?9*9?9*9*9?9*_?9?9*9?9*9,25.8,20.3,71,98090,863,1331,404,537,509,207,64409,48340,22753,102,180,5.1,5,5,777.7,77777,9,999999999,0,0.0000,0,0,999.000,0.0,99.0
2015,5,25,15,0,?9?9?9?9E0?9?9?9?9*9?9?9?9?9*9?9*9*9?9*_?9?9*9?9*9,25.9,20.3,71,98090,694,1331,404,444,654,103,53296,62124,11365,63,180,5.4,5,5,777.7,77777,9,999999999,0,0.0000,0,0,999.000,0.0,99.0
2015,5,25,16,0,?9?9?9?9E0?9?9?9?9*9?9?9?9?9*9?9*9*9?9*_?9?9*9?9*9,25.6,20.3,72,98090,466,1331,407,308,556,114,36968,52862,12486,103,180,5.0,6,6,777.7,77777,9,999999999,0,0.0000,0,0,999.000,0.0,99.0
2015,5,25,17,0,?9?9?9?9E0?9?9?9?9*9?9?9?9?9*9?9*9*9?9*_?9?9*9?9*9,25.0,20.2,73,98090,196,1331,408,143,291,100,17135,27685,11044,220,180,3.4,7,7,777.7,77777,9,999999999,0,0.0000,0,0,999.000,0.0,99.0
2015,5,25,18,0,?9?9?9?9E0?9?9?9?9*9?9?9?9?9*9?9*9*9?9*_?9?9*9?9*9,24.5,20.1,74,98090,0,1331,405,4,0,0,463,0,0,0,180,2.5,7,7,777.7,77777,9,999999999,0,0.0000,0,0,999.000,0.0,99.0
2015,5,25,19,0,?9?9?9?9E0?9?9?9?9*9?9?9?9?9*9?9*9*9?9*_?9?9*9?9*9,24.0,20.0,76,98090,0,1331,402,0,0,0,0,0,0,0,180,2.0,7,7,777.7,77777,9,999999999,0,0.0000,0,0,999.000,0.0,99.0
2015,5,25,20,0,?9?9?9?9E0?9?9?9?9*9?9?9?9?9*9?9*9*9?9*_?9?9*9?9*9,23.5,19.9,81,98090,0,1331,399,0,0,0,0,0,0,0,180,1.7,7,7,777.7,77777,9,999999999,0,0.0000,0,0,999.000,0.2,99.0
2015,5,25,21,0,?9?9?9?9E0?9?9?9?9*9?9?9?9?9*9?9*9*9?9*_?9?9*9?9*9,23.0,19.8,82,98090,0,1331,396,0,0,0,0,0,0,0,180,1.7,7,7,777.7,77777,9,999999999,0,0.0000,0,0,999.000,0.0,99.0
2015,5,25,22,0,?9?9?9?9E0?9?9?9?9*9?9?9?9?9*9?9*9*9?9*_?9?9*9?9*9,22.5,19.7,84,98090,0,1331,393,0,0,0,0,0,0,0,180,1.7,7,7,777.7,77777,9,999999999,0,0.0000,0,0,999.000,0.3,99.0
2015,5,25,23,0,?9?9?9?9E0?9?9?9?9*9?9?9?9?9*9?9*9*9?9*_?9?9*9?9*9,22.0,19.6,85,98090,0,1331,391,0,0,0,0,0,0,0,180,1.7,7,7,777.7,77777,9,999999999,0,0.0000,0,0,999.000,0.9,99.0
2015,5,25,24,0,?9?9?9?9E0?9?9?9?9*9?9?9?9?9*9?9*9*9?9*_?9?9*9?9*9,21.5,17.9,80,98090,0,1331,386,0,0,0,0,0,0,0,180,1.2,7,7,777.7,77777,9,999999999,0,0.0000,0,0,999.000,0.0,99.0
2015,5,26,1,0,?9?9?9?9E0?9?9?9?9*9?9?9?9?9*9?9*9*9?9*_?9?9*9?9*9,21.2,17.9,81,98090,0,1331,385,0,0,0,0,0,0,0,180,1.2,7,7,777.7,77777,9,999999999,0,0.0000,0,0,999.000,0.0,99.0
2015,5,26,2,0,?9?9?9?9E0?9?9?9?9*9?9?9?9?9*9?9*9*9?9*_?9?9*9?9*9,21.0,17.9,82,98090,0,1331,383,0,0,0,0,0,0,0,180,1.2,7,7,777.7,77777,9,999999999,0,0.0000,0,0,999.000,0.0,99.0
2015,5,26,3,0,?9?9?9?9E0?9?9?9?9*9?9?9?9?9*9?9*9*9?9*_?9?9*9?9*9,20.7,17.9,83,98090,0,1331,382,0,0,0,0,0,0,0,180,1.2,7,7,777.7,77777,9,999999999,0,0.0000,0,0,999.000,0.0,99.0
2015,5,26,4,0,?9?9?9?9E0?9?9?9?9*9?9?9?9?9*9?9*9*9?9*_?9?9*9?9*9,20.5,17.9,85,98090,0,1330,381,0,0,0,0,0,0,0,180,1.2,7,7,777.7,77777,9,999999999,0,0.0000,0,0,999.000,0.0,99.0
2015,5,26,5,0,?9?9?9?9E0?9?9?9?9*9?9?9?9?9*9?9*9*9?9*_?9?9*9?9*9,20.2,17.8,86,98090,0,1330,379,0,0,0,0,0,0,0,180,1.2,7,7,777.7,77777,9,999999999,0,0.0000,0,0,999.000,0.0,99.0
2015,5,26,6,0,?9?9?9?9E0?9?9?9?9*9?9?9?9?9*9?9*9*9?9*_?9?9*9?9*9,20.0,17.8,87,98090,0,1330,378,0,0,0,0,0,0,0,180,1.2,7,7,777.7,77777,9,999999999,0,0.0000,0,0,999.000,0.0,99.0
2015,5,26,7,0,?9?9?9?9E0?9?9?9?9*9?9?9?9?9*9?9*9*9?9*_?9?9*9?9*9,19.8,17.8,88,98090,63,1330,377,0,0,0,0,0,0,0,180,1.2,7,7,777.7,77777,9,999999999,0,0.0000,0,0,999.000,0.0,99.0
2015,5,26,8,0,?9?9?9?9E0?9?9?9?9*9?9?9?9?9*9?9*9*9?9*_?9?9*9?9*9,19.7,17.8,89,98090,343,1330,376,85,0,85,10195,0,9346,105,180,1.2,7,7,777.7,77777,9,999999999,0,0.0000,0,0,999.000,0.0,99.0
2015,5,26,9,0,?9?9?9?9E0?9?9?9?9*9?9?9?9?9*9?9*9*9?9*_?9?9*9?9*9,22.1,18.0,77,98090,593,1330,376,298,253,186,35797,24007,20441,133,180,1.8,3,3,777.7,77777,9,999999999,0,0.0000,0,0,999.000,0.0,99.0
2015,5,26,10,0,?9?9?9?9E0?9?9?9?9*9?9?9?9?9*9?9*9*9?9*_?9?9*9?9*9,23.4,18.1,71,98090,790,1330,367,495,515,189,59401,48930,20807,101,180,3.2,0,0,777.7,77777,9,999999999,0,0.0000,0,0,999.000,0.0,99.0
2015,5,26,11,0,?9?9?9?9E0?9?9?9?9*9?9?9?9?9*9?9*9*9?9*_?9?9*9?9*9,24.6,18.1,67,98090,922,1330,372,645,701,159,77372,66592,17474,73,180,4.0,0,0,777.7,77777,9,999999999,0,0.0000,0,0,999.000,0.0,99.0
2015,5,26,12,0,?9?9?9?9E0?9?9?9?9*9?9?9?9?9*9?9*9*9?9*_?9?9*9?9*9,25.5,18.2,64,98090,980,1330,377,733,841,114,87980,79907,12516,49,180,4.4,0,0,777.7,77777,9,999999999,0,0.0000,0,0,999.000,0.0,99.0
2015,5,26,13,0,?9?9?9?9E0?9?9?9?9*9?9?9?9?9*9?9*9*9?9*_?9?9*9?9*9,26.1,18.3,61,98090,959,1330,381,754,775,196,90527,73621,21567,87,180,4.7,0,0,777.7,77777,9,999999999,0,0.0000,0,0,999.000,0.0,99.0
2015,5,26,14,0,?9?9?9?9E0?9?9?9?9*9?9?9?9?9*9?9*9*9?9*_?9?9*9?9*9,26.5,18.3,60,98090,860,1330,382,702,796,187,84182,75583,20585,92,180,4.7,0,0,777.7,77777,9,999999999,0,0.0000,0,0,999.000,0.0,99.0
2015,5,26,15,0,?9?9?9?9E0?9?9?9?9*9?9?9?9?9*9?9*9*9?9*_?9?9*9?9*9,26.6,18.3,60,98090,692,1330,383,580,769,180,69606,73056,19852,111,180,5.0,0,0,777.7,77777,9,999999999,0,0.0000,0,0,999.000,0.0,99.0
2015,5,26,16,0,?9?9?9?9E0?9?9?9?9*9?9?9?9?9*9?9*9*9?9*_?9?9*9?9*9,26.3,18.3,61,98090,464,1330,381,405,728,151,48554,69181,16603,138,180,4.9,0,0,777.7,77777,9,999999999,0,0.0000,0,0,999.000,0.0,99.0
2015,5,26,17,0,?9?9?9?9E0?9?9?9?9*9?9?9?9?9*9?9*9*9?9*_?9?9*9?9*9,25.5,18.2,63,98090,195,1330,397,191,374,137,22882,35525,15032,301,180,4.1,4,4,777.7,77777,9,999999999,0,0.0000,0,0,999.000,0.0,99.0
2015,5,26,18,0,?9?9?9?9E0?9?9?9?9*9?9?9?9?9*9?9*9*9?9*_?9?9*9?9*9,25.0,18.2,66,98090,0,1330,394,6,0,0,770,0,0,0,180,3.6,4,4,777.7,77777,9,999999999,0,0.0000,0,0,999.000,0.0,99.0
2015,5,26,19,0,?9?9?9?9E0?9?9?9?9*9?9?9?9?9*9?9*9*9?9*_?9?9*9?9*9,24.4,18.1,68,98090,0,1330,391,0,0,0,0,0,0,0,180,2.3,4,4,777.7,77777,9,999999999,0,0.0000,0,0,999.000,0.0,99.0
2015,5,26,20,0,?9?9?9?9E0?9?9?9?9*9?9?9?9?9*9?9*9*9?9*_?9?9*9?9*9,23.8,18.1,70,98090,0,1330,390,0,0,0,0,0,0,0,180,1.7,5,5,777.7,77777,9,999999999,0,0.0000,0,0,999.000,0.0,99.0
2015,5,26,21,0,?9?9?9?9E0?9?9?9?9*9?9?9?9?9*9?9*9*9?9*_?9?9*9?9*9,23.2,18.1,72,98090,0,1330,387,0,0,0,0,0,0,0,180,1.2,5,5,777.7,77777,9,999999999,0,0.0000,0,0,999.000,0.0,99.0
2015,5,26,22,0,?9?9?9?9E0?9?9?9?9*9?9?9?9?9*9?9*9*9?9*_?9?9*9?9*9,22.6,18.0,75,98090,0,1330,384,0,0,0,0,0,0,0,180,1.2,5,5,777.7,77777,9,999999999,0,0.0000,0,0,999.000,0.0,99.0
2015,5,26,23,0,?9?9?9?9E0?9?9?9?9*9?9?9?9?9*9?9*9*9?9*_?9?9*9?9*9,22.0,18.0,77,98090,0,1330,381,0,0,0,0,0,0,0,180,1.2,5,5,777.7,77777,9,999999999,0,0.0000,0,0,999.000,0.0,99.0
2015,5,26,24,0,?9?9?9?9E0?9?9?9?9*9?9?9?9?9*9?9*9*9?9*_?9?9*9?9*9,21.4,18.1,75,98090,0,1330,378,0,0,0,0,0,0,0,180,1.2,5,5,777.7,77777,9,999999999,0,0.0000,0,0,999.000,0.0,99.0
2015,5,27,1,0,?9?9?9?9E0?9?9?9?9*9?9?9?9?9*9?9*9*9?9*_?9?9*9?9*9,21.1,18.2,79,98090,0,1330,380,0,0,0,0,0,0,0,180,1.2,6,6,777.7,77777,9,999999999,0,0.0000,0,0,999.000,0.0,99.0
2015,5,27,2,0,?9?9?9?9E0?9?9?9?9*9?9?9?9?9*9?9*9*9?9*_?9?9*9?9*9,20.8,18.2,81,98090,0,1330,379,0,0,0,0,0,0,0,180,1.2,6,6,777.7,77777,9,999999999,0,0.0000,0,0,999.000,0.0,99.0
2015,5,27,3,0,?9?9?9?9E0?9?9?9?9*9?9?9?9?9*9?9*9*9?9*_?9?9*9?9*9,20.5,18.2,78,98090,0,1330,377,0,0,0,0,0,0,0,180,1.3,6,6,777.7,77777,9,999999999,0,0.0000,0,0,999.000,0.0,99.0
2015,5,27,4,0,?9?9?9?9E0?9?9?9?9*9?9?9?9?9*9?9*9*9?9*_?9?9*9?9*9,20.2,18.2,83,98090,0,1330,376,0,0,0,0,0,0,0,180,1.5,6,6,777.7,77777,9,999999999,0,0.0000,0,0,999.000,0.2,99.0
2015,5,27,5,0,?9?9?9?9E0?9?9?9?9*9?9?9?9?9*9?9*9*9?9*_?9?9*9?9*9,20.0,18.3,84,98090,0,1330,374,0,0,0,0,0,0,0,180,1.3,6,6,777.7,77777,9,999999999,0,0.0000,0,0,999.000,0.1,99.0
2015,5,27,6,0,?9?9?9?9E0?9?9?9?9*9?9?9?9?9*9?9*9*9?9*_?9?9*9?9*9,19.7,18.3,82,98090,0,1330,377,0,0,0,0,0,0,0,180,1.4,7,7,777.7,77777,9,999999999,0,0.0000,0,0,999.000,0.0,99.0
2015,5,27,7,0,?9?9?9?9E0?9?9?9?9*9?9?9?9?9*9?9*9*9?9*_?9?9*9?9*9,19.5,18.3,93,98090,61,1330,376,0,0,0,0,0,0,0,180,1.6,7,7,777.7,77777,9,999999999,9,0.0000,0,0,999.000,9.6,99.0
2015,5,27,8,0,?9?9?9?9E0?9?9?9?9*9?9?9?9?9*9?9*9*9?9*_?9?9*9?9*9,19.3,18.4,87,98090,341,1330,375,85,0,85,10193,0,9343,106,180,1.7,7,7,777.7,77777,9,999999999,0,0.0000,0,0,999.000,0.6,99.0
2015,5,27,9,0,?9?9?9?9E0?9?9?9?9*9?9?9?9?9*9?9*9*9?9*_?9?9*9?9*9,21.9,18.1,73,98090,590,1330,371,307,285,181,36830,27070,19873,130,180,2.4,2,2,777.7,77777,9,999999999,0,0.0000,0,0,999.000,0.0,99.0
2015,5,27,10,0,?9?9?9?9E0?9?9?9?9*9?9?9?9?9*9?9*9*9?9*_?9?9*9?9*9,23.2,17.9,68,98090,787,1330,366,509,578,167,61116,54901,18405,90,180,2.6,0,0,777.7,77777,9,999999999,0,0.0000,0,0,999.000,0.0,99.0
2015,5,27,11,0,?9?9?9?9E0?9?9?9?9*9?9?9?9?9*9?9*9*9?9*_?9?9*9?9*9,24.4,17.8,64,98090,919,1330,371,662,774,127,79454,73549,13979,59,180,3.4,0,0,777.7,77777,9,999999999,0,0.0000,0,0,999.000,0.0,99.0
2015,5,27,12,0,?9?9?9?9E0?9?9?9?9*9?9?9?9?9*9?9*9*9?9*_?9?9*9?9*9,25.4,17.7,61,98090,977,1330,376,748,888,95,89702,84354,10502,41,180,3.5,0,0,777.7,77777,9,999999999,0,0.0000,0,0,999.000,0.0,99.0
2015,5,27,13,0,?9?9?9?9E0?9?9?9?9*9?9?9?9?9*9?9*9*9?9*_?9?9*9?9*9,26.0,17.6,59,98090,956,1330,379,761,786,197,91354,74666,21619,87,180,4.3,0,0,777.7,77777,9,999999999,0,0.0000,0,0,999.000,0.0,99.0
2015,5,27,14,0,?9?9?9?9E0?9?9?9?9*9?9?9?9?9*9?9*9*9?9*_?9?9*9?9*9,26.4,17.6,58,98090,858,1330,381,703,797,189,84373,75676,20842,94,180,4.5,0,0,777.7,77777,9,999999999,0,0.0000,0,0,999.000,0.0,99.0
2015,5,27,15,0,?9?9?9?9E0?9?9?9?9*9?9?9?9?9*9?9*9*9?9*_?9?9*9?9*9,26.4,17.6,58,98090,689,1330,381,581,813,160,69734,77264,17570,98,180,4.1,0,0,777.7,77777,9,999999999,0,0.0000,0,0,999.000,0.0,99.0
2015,5,27,16,0,?9?9?9?9E0?9?9?9?9*9?9?9?9?9*9?9*9*9?9*_?9?9*9?9*9,26.1,17.6,59,98090,463,1330,379,402,728,150,48272,69119,16466,137,180,4.4,0,0,777.7,77777,9,999999999,0,0.0000,0,0,999.000,0.0,99.0
2015,5,27,17,0,?9?9?9?9E0?9?9?9?9*9?9?9?9?9*9?9*9*9?9*_?9?9*9?9*9,25.3,17.7,61,98090,193,1330,398,185,404,127,22141,38376,13918,281,180,4.3,5,5,777.7,77777,9,999999999,0,0.0000,0,0,999.000,0.0,99.0
2015,5,27,18,0,?9?9?9?9E0?9?9?9?9*9?9?9?9?9*9?9*9*9?9*_?9?9*9?9*9,24.9,17.7,62,98090,0,1330,396,4,0,0,496,0,0,0,180,3.8,5,5,777.7,77777,9,999999999,0,0.0000,0,0,999.000,0.0,99.0
2015,5,27,19,0,?9?9?9?9E0?9?9?9?9*9?9?9?9?9*9?9*9*9?9*_?9?9*9?9*9,24.5,17.8,64,98090,0,1330,394,0,0,0,0,0,0,0,180,3.3,5,5,777.7,77777,9,999999999,0,0.0000,0,0,999.000,0.0,99.0
2015,5,27,20,0,?9?9?9?9E0?9?9?9?9*9?9?9?9?9*9?9*9*9?9*_?9?9*9?9*9,24.0,17.8,69,98090,0,1330,395,0,0,0,0,0,0,0,180,2.3,6,6,777.7,77777,9,999999999,0,0.0000,0,0,999.000,0.1,99.0
2015,5,27,21,0,?9?9?9?9E0?9?9?9?9*9?9?9?9?9*9?9*9*9?9*_?9?9*9?9*9,23.6,17.9,70,98090,0,1330,393,0,0,0,0,0,0,0,180,1.4,6,6,777.7,77777,9,999999999,0,0.0000,0,0,999.000,0.0,99.0
2015,5,27,22,0,?9?9?9?9E0?9?9?9?9*9?9?9?9?9*9?9*9*9?9*_?9?9*9?9*9,23.2,17.9,72,98090,0,1330,390,0,0,0,0,0,0,0,180,1.3,6,6,777.7,77777,9,999999999,0,0.0000,0,0,999.000,0.1,99.0
2015,5,27,23,0,?9?9?9?9E0?9?9?9?9*9?9?9?9?9*9?9*9*9?9*_?9?9*9?9*9,22.7,18.0,73,98090,0,1330,388,0,0,0,0,0,0,0,180,1.2,6,6,777.7,77777,9,999999999,0,0.0000,0,0,999.000,0.3,99.0
2015,5,27,24,0,?9?9?9?9E0?9?9?9?9*9?9?9?9?9*9?9*9*9?9*_?9?9*9?9*9,22.3,20.1,85,98090,0,1330,388,0,0,0,0,0,0,0,180,6.0,6,6,777.7,77777,9,999999999,0,0.0000,0,0,999.000,0.0,99.0
2015,5,28,1,0,?9?9?9?9E0?9?9?9?9*9?9?9?9?9*9?9*9*9?9*_?9?9*9?9*9,22.1,20.1,85,98090,0,1330,392,0,0,0,0,0,0,0,180,4.9,7,7,777.7,77777,9,999999999,0,0.0000,0,0,999.000,0.1,99.0
2015,5,28,2,0,?9?9?9?9E0?9?9?9?9*9?9?9?9?9*9?9*9*9?9*_?9?9*9?9*9,21.9,20.0,86,98090,0,1330,391,0,0,0,0,0,0,0,180,5.3,7,7,777.7,77777,9,999999999,0,0.0000,0,0,999.000,0.1,99.0
2015,5,28,3,0,?9?9?9?9E0?9?9?9?9*9?9?9?9?9*9?9*9*9?9*_?9?9*9?9*9,21.7,20.0,87,98090,0,1330,389,0,0,0,0,0,0,0,180,4.3,7,7,777.7,77777,9,999999999,0,0.0000,0,0,999.000,0.1,99.0
2015,5,28,4,0,?9?9?9?9E0?9?9?9?9*9?9?9?9?9*9?9*9*9?9*_?9?9*9?9*9,21.4,19.9,83,98090,0,1329,388,0,0,0,0,0,0,0,180,4.3,7,7,777.7,77777,9,999999999,0,0.0000,0,0,999.000,0.0,99.0
2015,5,28,5,0,?9?9?9?9E0?9?9?9?9*9?9?9?9?9*9?9*9*9?9*_?9?9*9?9*9,21.2,19.9,88,98090,0,1329,387,0,0,0,0,0,0,0,180,4.9,7,7,777.7,77777,9,999999999,0,0.0000,0,0,999.000,0.0,99.0
2015,5,28,6,0,?9?9?9?9E0?9?9?9?9*9?9?9?9?9*9?9*9*9?9*_?9?9*9?9*9,21.1,19.8,89,98090,0,1329,392,0,0,0,0,0,0,0,180,4.8,8,8,777.7,77777,9,999999999,0,0.0000,0,0,999.000,0.2,99.0
2015,5,28,7,0,?9?9?9?9E0?9?9?9?9*9?9?9?9?9*9?9*9*9?9*_?9?9*9?9*9,20.9,19.8,89,98090,58,1329,391,0,0,0,0,0,0,0,180,4.7,8,8,777.7,77777,9,999999999,0,0.0000,0,0,999.000,0.8,99.0
2015,5,28,8,0,?9?9?9?9E0?9?9?9?9*9?9?9?9?9*9?9*9*9?9*_?9?9*9?9*9,20.8,19.8,93,98090,338,1329,391,33,0,33,3986,0,3654,42,180,4.4,8,8,777.7,77777,9,999999999,1,0.0000,0,0,999.000,1.0,99.0
2015,5,28,9,0,?9?9?9?9E0?9?9?9?9*9?9?9?9?9*9?9*9*9?9*_?9?9*9?9*9,21.9,20.0,90,98090,587,1329,397,69,0,69,8224,0,7538,49,180,4.0,8,8,777.7,77777,9,999999999,2,0.0000,0,0,999.000,2.3,99.0
2015,5,28,10,0,?9?9?9?9E0?9?9?9?9*9?9?9?9?9*9?9*9*9?9*_?9?9*9?9*9,22.9,20.3,83,98090,784,1329,403,203,9,198,24383,901,21736,107,180,3.6,8,8,777.7,77777,9,999999999,0,0.0000,0,0,999.000,0.6,99.0
2015,5,28,11,0,?9?9?9?9E0?9?9?9?9*9?9?9?9?9*9?9*9*9?9*_?9?9*9?9*9,23.8,20.5,80,98090,916,1329,408,264,12,256,31670,1113,28143,118,180,4.4,8,8,777.7,77777,9,999999999,0,0.0000,0,0,999.000,0.4,99.0
2015,5,28,12,0,?9?9?9?9E0?9?9?9?9*9?9?9?9?9*9?9*9*9?9*_?9?9*9?9*9,24.4,20.6,78,98090,974,1329,412,299,15,288,35890,1423,31692,125,180,4.6,8,8,777.7,77777,9,999999999,0,0.0000,0,0,999.000,0.2,99.0
2015,5,28,13,0,?9?9?9?9E0?9?9?9?9*9?9?9?9?9*9?9*9*9?9*_?9?9*9?9*9,24.9,20.7,77,98090,953,1329,414,306,18,293,36709,1705,32235,130,180,3.6,8,8,777.7,77777,9,999999999,0,0.0000,0,0,999.000,0.2,99.0
2015,5,28,14,0,?9?9?9?9E0?9?9?9?9*9?9?9?9?9*9?9*9*9?9*_?9?9*9?9*9,25.2,20.8,76,98090,855,1329,416,284,22,270,34068,2068,29689,134,180,3.2,8,8,777.7,77777,9,999999999,0,0.0000,0,0,999.000,0.0,99.0
2015,5,28,15,0,?9?9?9?9E0?9?9?9?9*9?9?9?9?9*9?9*9*9?9*_?9?9*9?9*9,25.2,20.8,76,98090,687,1329,416,235,20,224,28168,1937,24662,138,180,3.8,8,8,777.7,77777,9,999999999,0,0.0000,0,0,999.000,0.0,99.0
2015,5,28,16,0,?9?9?9?9E0?9?9?9?9*9?9?9?9?9*9?9*9*9?9*_?9?9*9?9*9,25.0,20.8,77,98090,461,1329,415,162,74,137,19490,6999,15062,126,180,4.3,8,8,777.7,77777,9,999999999,0,0.0000,0,0,999.000,0.1,99.0
2015,5,28,17,0,?9?9?9?9E0?9?9?9?9*9?9?9?9?9*9?9*9*9?9*_?9?9*9?9*9,24.6,20.7,78,98090,192,1329,412,75,182,49,8957,17276,5356,109,180,4.5,8,8,777.7,77777,9,999999999,0,0.0000,0,0,999.000,0.3,99.0
2015,5,28,18,0,?9?9?9?9E0?9?9?9?9*9?9?9?9?9*9?9*9*9?9*_?9?9*9?9*9,24.2,20.6,79,98090,0,1329,410,2,0,0,214,0,0,0,180,4.9,8,8,777.7,77777,9,999999999,0,0.0000,0,0,999.000,0.5,99.0
2015,5,28,19,0,?9?9?9?9E0?9?9?9?9*9?9?9?9?9*9?9*9*9?9*_?9?9*9?9*9,23.8,20.5,84,98090,0,1329,408,0,0,0,0,0,0,0,180,4.9,8,8,777.7,77777,9,999999999,3,0.0000,0,0,999.000,3.7,99.0
2015,5,28,20,0,?9?9?9?9E0?9?9?9?9*9?9?9?9?9*9?9*9*9?9*_?9?9*9?9*9,23.4,20.4,89,98090,0,1329,406,0,0,0,0,0,0,0,180,6.0,8,8,777.7,77777,9,999999999,39,0.0000,0,0,999.000,39.0,99.0
2015,5,28,21,0,?9?9?9?9E0?9?9?9?9*9?9?9?9?9*9?9*9*9?9*_?9?9*9?9*9,23.1,20.3,82,98090,0,1329,404,0,0,0,0,0,0,0,180,6.0,8,8,777.7,77777,9,999999999,0,0.0000,0,0,999.000,0.4,99.0
2015,5,28,22,0,?9?9?9?9E0?9?9?9?9*9?9?9?9?9*9?9*9*9?9*_?9?9*9?9*9,22.7,20.2,87,98090,0,1329,401,0,0,0,0,0,0,0,180,5.3,8,8,777.7,77777,9,999999999,1,0.0000,0,0,999.000,1.6,99.0
2015,5,28,23,0,?9?9?9?9E0?9?9?9?9*9?9?9?9?9*9?9*9*9?9*_?9?9*9?9*9,22.3,20.1,88,98090,0,1329,399,0,0,0,0,0,0,0,180,5.2,8,8,777.7,77777,9,999999999,1,0.0000,0,0,999.000,1.3,99.0
2015,5,28,24,0,?9?9?9?9E0?9?9?9?9*9?9?9?9?9*9?9*9*9?9*_?9?9*9?9*9,21.9,19.8,85,98090,0,1329,397,0,0,0,0,0,0,0,180,5.2,8,8,777.7,77777,9,999999999,0,0.0000,0,0,999.000,0.4,99.0
2015,5,29,1,0,?9?9?9?9E0?9?9?9?9*9?9?9?9?9*9?9*9*9?9*_?9?9*9?9*9,21.7,19.8,88,98090,0,1329,396,0,0,0,0,0,0,0,180,4.1,8,8,777.7,77777,9,999999999,1,0.0000,0,0,999.000,1.3,99.0
2015,5,29,2,0,?9?9?9?9E0?9?9?9?9*9?9?9?9?9*9?9*9*9?9*_?9?9*9?9*9,21.5,19.7,86,98090,0,1329,395,0,0,0,0,0,0,0,180,4.4,8,8,777.7,77777,9,999999999,0,0.0000,0,0,999.000,0.6,99.0
2015,5,29,3,0,?9?9?9?9E0?9?9?9?9*9?9?9?9?9*9?9*9*9?9*_?9?9*9?9*9,21.4,19.7,89,98090,0,1329,394,0,0,0,0,0,0,0,180,3.9,8,8,777.7,77777,9,999999999,3,0.0000,0,0,999.000,3.8,99.0
2015,5,29,4,0,?9?9?9?9E0?9?9?9?9*9?9?9?9?9*9?9*9*9?9*_?9?9*9?9*9,21.2,19.7,87,98090,0,1329,393,0,0,0,0,0,0,0,180,3.9,8,8,777.7,77777,9,999999999,0,0.0000,0,0,999.000,0.7,99.0
2015,5,29,5,0,?9?9?9?9E0?9?9?9?9*9?9?9?9?9*9?9*9*9?9*_?9?9*9?9*9,21.0,19.6,93,98090,0,1329,392,0,0,0,0,0,0,0,180,4.1,8,8,777.7,77777,9,999999999,39,0.0000,0,0,999.000,39.8,99.0
2015,5,29,6,0,?9?9?9?9E0?9?9?9?9*9?9?9?9?9*9?9*9*9?9*_?9?9*9?9*9,20.8,19.6,91,98090,0,1329,391,0,0,0,0,0,0,0,180,4.2,8,8,777.7,77777,9,999999999,1,0.0000,0,0,999.000,1.7,99.0
2015,5,29,7,0,?9?9?9?9E0?9?9?9?9*9?9?9?9?9*9?9*9*9?9*_?9?9*9?9*9,20.7,19.6,88,98090,56,1329,390,0,0,0,0,0,0,0,180,4.3,8,8,777.7,77777,9,999999999,0,0.0000,0,0,999.000,0.4,99.0
2015,5,29,8,0,?9?9?9?9E0?9?9?9?9*9?9?9?9?9*9?9*9*9?9*_?9?9*9?9*9,20.6,19.6,89,98090,336,1329,389,23,0,23,2701,0,2476,28,180,3.6,8,8,777.7,77777,9,999999999,0,0.0000,0,0,999.000,0.0,99.0
2015,5,29,9,0,?9?9?9?9E0?9?9?9?9*9?9?9?9?9*9?9*9*9?9*_?9?9*9?9*9,21.9,19.8,85,98090,584,1329,396,70,0,70,8340,0,7645,50,180,3.3,8,8,777.7,77777,9,999999999,0,0.0000,0,0,999.000,0.2,99.0
2015,5,29,10,0,?9?9?9?9E0?9?9?9?9*9?9?9?9?9*9?9*9*9?9*_?9?9*9?9*9,22.5,19.9,84,98090,781,1329,400,113,0,113,13598,0,12465,61,180,3.3,8,8,777.7,77777,9,999999999,0,0.0000,0,0,999.000,0.0,99.0
2015,5,29,11,0,?9?9?9?9E0?9?9?9?9*9?9?9?9?9*9?9*9*9?9*_?9?9*9?9*9,23.2,20.0,85,98090,913,1329,404,169,1,168,20239,135,18445,78,180,3.3,8,8,777.7,77777,9,999999999,1,0.0000,0,0,999.000,1.0,99.0
2015,5,29,12,0,?9?9?9?9E0?9?9?9?9*9?9?9?9?9*9?9*9*9?9*_?9?9*9?9*9,23.7,20.0,80,98090,971,1329,407,192,3,190,23012,287,20852,83,180,3.3,8,8,777.7,77777,9,999999999,0,0.0000,0,0,999.000,0.1,99.0
2015,5,29,13,0,?9?9?9?9E0?9?9?9?9*9?9?9?9?9*9?9*9*9?9*_?9?9*9?9*9,24.1,20.1,79,98090,950,1329,409,209,4,206,25066,386,22657,92,180,3.3,8,8,777.7,77777,9,999999999,0,0.0000,0,0,999.000,0.8,99.0
2015,5,29,14,0,?9?9?9?9E0?9?9?9?9*9?9?9?9?9*9?9*9*9?9*_?9?9*9?9*9,24.5,20.1,79,98090,853,1329,411,223,12,216,26818,1113,23756,107,180,3.9,8,8,777.7,77777,9,999999999,0,0.0000,0,0,999.000,0.0,99.0
2015,5,29,15,0,?9?9?9?9E0?9?9?9?9*9?9?9?9?9*9?9*9*9?9*_?9?9*9?9*9,24.6,20.1,78,98090,685,1329,412,158,1,157,18938,95,17304,97,180,3.4,8,8,777.7,77777,9,999999999,0,0.0000,0,0,999.000,0.1,99.0
2015,5,29,16,0,?9?9?9?9E0?9?9?9?9*9?9?9?9?9*9?9*9*9?9*_?9?9*9?9*9,24.4,20.1,76,98090,459,1329,411,111,0,111,13345,0,12233,103,180,3.4,8,8,777.7,77777,9,999999999,0,0.0000,0,0,999.000,0.0,99.0
2015,5,29,17,0,?9?9?9?9E0?9?9?9?9*9?9?9?9?9*9?9*9*9?9*_?9?9*9?9*9,24.0,20.1,80,98090,191,1329,408,49,15,47,5908,1381,5188,106,180,3.9,8,8,777.7,77777,9,999999999,0,0.0000,0,0,999.000,0.2,99.0
2015,5,29,18,0,?9?9?9?9E0?9?9?9?9*9?9?9?9?9*9?9*9*9?9*_?9?9*9?9*9,23.4,20.0,81,98090,0,1329,405,1,0,0,142,0,0,0,180,4.1,8,8,777.7,77777,9,999999999,0,0.0000,0,0,999.000,0.0,99.0
2015,5,29,19,0,?9?9?9?9E0?9?9?9?9*9?9?9?9?9*9?9*9*9?9*_?9?9*9?9*9,22.9,19.9,82,98090,0,1329,402,0,0,0,0,0,0,0,180,3.5,8,8,777.7,77777,9,999999999,0,0.0000,0,0,999.000,0.2,99.0
2015,5,29,20,0,?9?9?9?9E0?9?9?9?9*9?9?9?9?9*9?9*9*9?9*_?9?9*9?9*9,22.4,19.8,84,98090,0,1329,399,0,0,0,0,0,0,0,180,3.3,8,8,777.7,77777,9,999999999,0,0.0000,0,0,999.000,0.1,99.0
2015,5,29,21,0,?9?9?9?9E0?9?9?9?9*9?9?9?9?9*9?9*9*9?9*_?9?9*9?9*9,21.9,19.8,88,98090,0,1329,396,0,0,0,0,0,0,0,180,4.6,8,8,777.7,77777,9,999999999,2,0.0000,0,0,999.000,2.3,99.0
2015,5,29,22,0,?9?9?9?9E0?9?9?9?9*9?9?9?9?9*9?9*9*9?9*_?9?9*9?9*9,21.3,19.7,87,98090,0,1329,393,0,0,0,0,0,0,0,180,4.2,8,8,777.7,77777,9,999999999,0,0.0000,0,0,999.000,0.3,99.0
2015,5,29,23,0,?9?9?9?9E0?9?9?9?9*9?9?9?9?9*9?9*9*9?9*_?9?9*9?9*9,20.8,19.6,88,98090,0,1329,391,0,0,0,0,0,0,0,180,4.9,8,8,777.7,77777,9,999999999,0,0.0000,0,0,999.000,0.1,99.0
2015,5,29,24,0,?9?9?9?9E0?9?9?9?9*9?9?9?9?9*9?9*9*9?9*_?9?9*9?9*9,20.3,18.1,82,98090,0,1329,386,0,0,0,0,0,0,0,180,4.0,8,8,777.7,77777,9,999999999,0,0.0000,0,0,999.000,0.3,99.0
2015,5,30,1,0,?9?9?9?9E0?9?9?9?9*9?9?9?9?9*9?9*9*9?9*_?9?9*9?9*9,20.0,18.0,83,98090,0,1329,384,0,0,0,0,0,0,0,180,4.1,8,8,777.7,77777,9,999999999,0,0.0000,0,0,999.000,0.5,99.0
2015,5,30,2,0,?9?9?9?9E0?9?9?9?9*9?9?9?9?9*9?9*9*9?9*_?9?9*9?9*9,19.7,18.0,84,98090,0,1329,383,0,0,0,0,0,0,0,180,4.4,8,8,777.7,77777,9,999999999,0,0.0000,0,0,999.000,0.1,99.0
2015,5,30,3,0,?9?9?9?9E0?9?9?9?9*9?9?9?9?9*9?9*9*9?9*_?9?9*9?9*9,19.5,17.9,89,98090,0,1329,382,0,0,0,0,0,0,0,180,3.5,8,8,777.7,77777,9,999999999,3,0.0000,0,0,999.000,3.5,99.0
2015,5,30,4,0,?9?9?9?9E0?9?9?9?9*9?9?9?9?9*9?9*9*9?9*_?9?9*9?9*9,19.2,17.9,94,98090,0,1328,380,0,0,0,0,0,0,0,180,3.7,8,8,777.7,77777,9,999999999,5,0.0000,0,0,999.000,5.7,99.0
2015,5,30,5,0,?9?9?9?9E0?9?9?9?9*9?9?9?9?9*9?9*9*9?9*_?9?9*9?9*9,18.9,17.8,95,98090,0,1328,379,0,0,0,0,0,0,0,180,3.5,8,8,777.7,77777,9,999999999,60,0.0000,0,0,999.000,60.4,99.0
2015,5,30,6,0,?9?9?9?9E0?9?9?9?9*9?9?9?9?9*9?9*9*9?9*_?9?9*9?9*9,18.7,17.8,92,98090,0,1328,378,0,0,0,0,0,0,0,180,3.5,8,8,777.7,77777,9,999999999,1,0.0000,0,0,999.000,1.2,99.0
2015,5,30,7,0,?9?9?9?9E0?9?9?9?9*9?9?9?9?9*9?9*9*9?9*_?9?9*9?9*9,18.6,17.8,93,98090,54,1328,377,0,0,0,0,0,0,0,180,3.3,8,8,777.7,77777,9,999999999,1,0.0000,0,0,999.000,1.0,99.0
2015,5,30,8,0,?9?9?9?9E0?9?9?9?9*9?9?9?9?9*9?9*9*9?9*_?9?9*9?9*9,18.4,17.7,89,98090,333,1328,376,16,0,16,1883,0,1726,20,180,3.5,8,8,777.7,77777,9,999999999,0,0.0000,0,0,999.000,0.2,99.0
2015,5,30,9,0,?9?9?9?9E0?9?9?9?9*9?9?9?9?9*9?9*9*9?9*_?9?9*9?9*9,21.3,18.3,78,98090,582,1328,392,68,0,68,8209,0,7525,50,180,3.4,8,8,777.7,77777,9,999999999,0,0.0000,0,0,999.000,0.4,99.0
2015,5,30,10,0,?9?9?9?9E0?9?9?9?9*9?9?9?9?9*9?9*9*9?9*_?9?9*9?9*9,22.6,18.5,74,98090,779,1328,399,99,0,99,11902,0,10910,54,180,3.5,8,8,777.7,77777,9,999999999,0,0.0000,0,0,999.000,0.0,99.0
2015,5,30,11,0,?9?9?9?9E0?9?9?9?9*9?9?9?9?9*9?9*9*9?9*_?9?9*9?9*9,24.0,18.8,66,98090,910,1328,407,141,0,141,16927,0,15517,66,180,3.7,8,8,777.7,77777,9,999999999,0,0.0000,0,0,999.000,0.0,99.0
2015,5,30,12,0,?9?9?9?9E0?9?9?9?9*9?9?9?9?9*9?9*9*9?9*_?9?9*9?9*9,25.0,18.9,67,98090,968,1328,412,147,0,146,17597,31,16105,64,180,3.5,8,8,777.7,77777,9,999999999,0,0.0000,0,0,999.000,0.1,99.0
2015,5,30,13,0,?9?9?9?9E0?9?9?9?9*9?9?9?9?9*9?9*9*9?9*_?9?9*9?9*9,25.7,19.0,65,98090,948,1328,417,158,1,157,18966,96,17306,70,180,3.5,8,8,777.7,77777,9,999999999,0,0.0000,0,0,999.000,0.2,99.0
2015,5,30,14,0,?9?9?9?9E0?9?9?9?9*9?9?9?9?9*9?9*9*9?9*_?9?9*9?9*9,26.0,19.1,68,98090,851,1328,418,131,0,131,15694,0,14386,65,180,3.0,8,8,777.7,77777,9,999999999,2,0.0000,0,0,999.000,2.5,99.0
2015,5,30,15,0,?9?9?9?9E0?9?9?9?9*9?9?9?9?9*9?9*9*9?9*_?9?9*9?9*9,26.1,19.1,68,98090,683,1328,419,129,0,129,15504,0,14212,80,180,3.0,8,8,777.7,77777,9,999999999,1,0.0000,0,0,999.000,2.0,99.0
2015,5,30,16,0,?9?9?9?9E0?9?9?9?9*9?9?9?9?9*9?9*9*9?9*_?9?9*9?9*9,25.8,19.1,65,98090,458,1328,417,82,0,82,9863,0,9041,76,180,3.0,8,8,777.7,77777,9,999999999,0,0.0000,0,0,999.000,0.8,99.0
2015,5,30,17,0,?9?9?9?9E0?9?9?9?9*9?9?9?9?9*9?9*9*9?9*_?9?9*9?9*9,25.0,18.9,67,98090,190,1328,412,42,0,42,5088,0,4664,96,180,3.0,8,8,777.7,77777,9,999999999,0,0.0000,0,0,999.000,0.1,99.0
2015,5,30,18,0,?9?9?9?9E0?9?9?9?9*9?9?9?9?9*9?9*9*9?9*_?9?9*9?9*9,24.4,18.8,68,98090,0,1328,409,1,0,0,97,0,0,0,180,3.0,8,8,777.7,77777,9,999999999,0,0.0000,0,0,999.000,0.2,99.0
2015,5,30,19,0,?9?9?9?9E0?9?9?9?9*9?9?9?9?9*9?9*9*9?9*_?9?9*9?9*9,23.9,18.7,74,98090,0,1328,406,0,0,0,0,0,0,0,180,3.0,8,8,777.7,77777,9,999999999,1,0.0000,0,0,999.000,1.5,99.0
2015,5,30,20,0,?9?9?9?9E0?9?9?9?9*9?9?9?9?9*9?9*9*9?9*_?9?9*9?9*9,23.4,18.6,72,98090,0,1328,403,0,0,0,0,0,0,0,180,3.0,8,8,777.7,77777,9,999999999,0,0.0000,0,0,999.000,0.0,99.0
2015,5,30,21,0,?9?9?9?9E0?9?9?9?9*9?9?9?9?9*9?9*9*9?9*_?9?9*9?9*9,22.8,18.5,73,98090,0,1328,400,0,0,0,0,0,0,0,180,3.0,8,8,777.7,77777,9,999999999,0,0.0000,0,0,999.000,0.0,99.0
2015,5,30,22,0,?9?9?9?9E0?9?9?9?9*9?9?9?9?9*9?9*9*9?9*_?9?9*9?9*9,22.3,18.4,75,98090,0,1328,397,0,0,0,0,0,0,0,180,3.0,8,8,777.7,77777,9,999999999,0,0.0000,0,0,999.000,0.7,99.0
2015,5,30,23,0,?9?9?9?9E0?9?9?9?9*9?9?9?9?9*9?9*9*9?9*_?9?9*9?9*9,21.7,18.3,77,98090,0,1328,394,0,0,0,0,0,0,0,180,3.0,8,8,777.7,77777,9,999999999,0,0.0000,0,0,999.000,0.6,99.0
2015,5,30,24,0,?9?9?9?9E0?9?9?9?9*9?9?9?9?9*9?9*9*9?9*_?9?9*9?9*9,21.2,18.8,80,98090,0,1328,392,0,0,0,0,0,0,0,180,2.5,8,8,777.7,77777,9,999999999,0,0.0000,0,0,999.000,0.0,99.0
2015,5,31,1,0,?9?9?9?9E0?9?9?9?9*9?9?9?9?9*9?9*9*9?9*_?9?9*9?9*9,20.9,18.7,84,98090,0,1328,390,0,0,0,0,0,0,0,180,2.5,8,8,777.7,77777,9,999999999,0,0.0000,0,0,999.000,0.1,99.0
2015,5,31,2,0,?9?9?9?9E0?9?9?9?9*9?9?9?9?9*9?9*9*9?9*_?9?9*9?9*9,20.6,18.6,85,98090,0,1328,388,0,0,0,0,0,0,0,180,2.5,8,8,777.7,77777,9,999999999,0,0.0000,0,0,999.000,0.2,99.0
2015,5,31,3,0,?9?9?9?9E0?9?9?9?9*9?9?9?9?9*9?9*9*9?9*_?9?9*9?9*9,20.4,18.6,86,98090,0,1328,387,0,0,0,0,0,0,0,180,2.5,8,8,777.7,77777,9,999999999,0,0.0000,0,0,999.000,0.3,99.0
2015,5,31,4,0,?9?9?9?9E0?9?9?9?9*9?9?9?9?9*9?9*9*9?9*_?9?9*9?9*9,20.1,18.5,93,98090,0,1328,385,0,0,0,0,0,0,0,180,2.6,8,8,777.7,77777,9,999999999,20,0.0000,0,0,999.000,20.7,99.0
2015,5,31,5,0,?9?9?9?9E0?9?9?9?9*9?9?9?9?9*9?9*9*9?9*_?9?9*9?9*9,19.8,18.4,87,98090,0,1328,384,0,0,0,0,0,0,0,180,2.8,8,8,777.7,77777,9,999999999,0,0.0000,0,0,999.000,0.1,99.0
2015,5,31,6,0,?9?9?9?9E0?9?9?9?9*9?9?9?9?9*9?9*9*9?9*_?9?9*9?9*9,19.6,18.3,88,98090,0,1328,383,0,0,0,0,0,0,0,180,2.5,8,8,777.7,77777,9,999999999,0,0.0000,0,0,999.000,0.0,99.0
2015,5,31,7,0,?9?9?9?9E0?9?9?9?9*9?9?9?9?9*9?9*9*9?9*_?9?9*9?9*9,19.4,18.3,85,98090,53,1328,382,0,0,0,0,0,0,0,180,2.5,8,8,777.7,77777,9,999999999,0,0.0000,0,0,999.000,0.0,99.0
2015,5,31,8,0,?9?9?9?9E0?9?9?9?9*9?9?9?9?9*9?9*9*9?9*_?9?9*9?9*9,19.2,18.2,85,98090,331,1328,381,48,0,48,5802,0,5319,62,180,2.5,8,8,777.7,77777,9,999999999,0,0.0000,0,0,999.000,0.0,99.0
2015,5,31,9,0,?9?9?9?9E0?9?9?9?9*9?9?9?9?9*9?9*9*9?9*_?9?9*9?9*9,23.3,19.4,74,98090,579,1328,397,194,60,168,23256,5653,18467,123,180,2.5,7,7,777.7,77777,9,999999999,0,0.0000,0,0,999.000,0.0,99.0
2015,5,31,10,0,?9?9?9?9E0?9?9?9?9*9?9?9?9?9*9?9*9*9?9*_?9?9*9?9*9,27.0,20.4,66,98090,776,1328,400,454,382,231,54502,36290,25425,126,180,2.5,2,2,777.7,77777,9,999999999,0,0.0000,0,0,999.000,0.0,99.0
2015,5,31,11,0,?9?9?9?9E0?9?9?9?9*9?9?9?9?9*9?9*9*9?9*_?9?9*9?9*9,28.0,20.6,64,98090,908,1328,431,345,103,275,41412,9811,30200,128,180,2.5,8,8,777.7,77777,9,999999999,0,0.0000,0,0,999.000,0.0,99.0
2015,5,31,12,0,?9?9?9?9E0?9?9?9?9*9?9?9?9?9*9?9*9*9?9*_?9?9*9?9*9,27.6,20.5,68,98090,965,1328,429,228,8,222,27317,802,24365,97,180,2.5,8,8,777.7,77777,9,999999999,0,0.0000,0,0,999.000,0.0,99.0
2015,5,31,13,0,?9?9?9?9E0?9?9?9?9*9?9?9?9?9*9?9*9*9?9*_?9?9*9?9*9,26.5,20.2,67,98090,945,1328,422,136,0,136,16285,0,14928,61,180,2.5,8,8,777.7,77777,9,999999999,0,0.0000,0,0,999.000,0.0,99.0
2015,5,31,14,0,?9?9?9?9E0?9?9?9?9*9?9?9?9?9*9?9*9*9?9*_?9?9*9?9*9,25.8,20.0,72,98090,848,1328,418,150,0,150,18034,0,16531,75,180,2.5,8,8,777.7,77777,9,999999999,0,0.0000,0,0,999.000,0.1,99.0
2015,5,31,15,0,?9?9?9?9E0?9?9?9?9*9?9?9?9?9*9?9*9*9?9*_?9?9*9?9*9,25.9,20.1,72,98090,682,1328,419,242,73,205,29020,6910,22497,127,180,2.5,8,8,777.7,77777,9,999999999,0,0.0000,0,0,999.000,0.7,99.0
2015,5,31,16,0,?9?9?9?9E0?9?9?9?9*9?9?9?9?9*9?9*9*9?9*_?9?9*9?9*9,25.5,20.0,73,98090,457,1328,417,167,88,137,20042,8395,15037,127,180,2.5,8,8,777.7,77777,9,999999999,0,0.0000,0,0,999.000,0.2,99.0
2015,5,31,17,0,?9?9?9?9E0?9?9?9?9*9?9?9?9?9*9?9*9*9?9*_?9?9*9?9*9,24.7,19.8,74,98090,189,1328,412,76,207,47,9146,19694,5179,107,180,2.5,8,8,777.7,77777,9,999999999,0,0.0000,0,0,999.000,0.0,99.0
2015,5,31,18,0,?9?9?9?9E0?9?9?9?9*9?9?9?9?9*9?9*9*9?9*_?9?9*9?9*9,24.3,19.7,76,98090,0,1328,410,49,0,0,5877,0,0,0,180,2.5,8,8,777.7,77777,9,999999999,0,0.0000,0,0,999.000,0.7,99.0
2015,5,31,19,0,?9?9?9?9E0?9?9?9?9*9?9?9?9?9*9?9*9*9?9*_?9?9*9?9*9,23.7,19.5,78,98090,0,1328,406,16,0,0,1869,0,0,0,180,2.5,8,8,777.7,77777,9,999999999,0,0.0000,0,0,999.000,0.7,99.0
2015,5,31,20,0,?9?9?9?9E0?9?9?9?9*9?9?9?9?9*9?9*9*9?9*_?9?9*9?9*9,23.2,19.4,79,98090,0,1328,403,0,0,0,39,0,0,0,180,2.5,8,8,777.7,77777,9,999999999,0,0.0000,0,0,999.000,0.7,99.0
2015,5,31,21,0,?9?9?9?9E0?9?9?9?9*9?9?9?9?9*9?9*9*9?9*_?9?9*9?9*9,22.7,19.2,80,98090,0,1328,400,0,0,0,0,0,0,0,180,2.5,8,8,777.7,77777,9,999999999,0,0.0000,0,0,999.000,0.6,99.0
2015,5,31,22,0,?9?9?9?9E0?9?9?9?9*9?9?9?9?9*9?9*9*9?9*_?9?9*9?9*9,22.2,19.0,82,98090,0,1328,397,0,0,0,0,0,0,0,180,2.4,8,8,777.7,77777,9,999999999,0,0.0000,0,0,999.000,0.4,99.0
2015,5,31,23,0,?9?9?9?9E0?9?9?9?9*9?9?9?9?9*9?9*9*9?9*_?9?9*9?9*9,21.8,18.8,82,98090,0,1328,395,0,0,0,0,0,0,0,180,2.3,8,8,777.7,77777,9,999999999,0,0.0000,0,0,999.000,0.2,99.0
2015,5,31,24,0,?9?9?9?9E0?9?9?9?9*9?9?9?9?9*9?9*9*9?9*_?9?9*9?9*9,21.4,18.6,83,98090,0,1328,393,0,0,0,0,0,0,0,180,2.3,8,8,777.7,77777,9,999999999,0,0.0000,0,0,999.000,0.1,99.0
2022,6,1,1,0,?9?9?9?9E0?9?9?9?9*9?9?9?9?9*9?9*9*9?9*_?9?9*9?9*9,21.2,18.5,83,98090,0,1328,391,0,0,0,0,0,0,0,180,2.2,8,8,777.7,77777,9,999999999,0,0.0000,0,0,999.000,0.1,99.0
2022,6,1,2,0,?9?9?9?9E0?9?9?9?9*9?9?9?9?9*9?9*9*9?9*_?9?9*9?9*9,21.0,18.4,83,98090,0,1328,390,0,0,0,0,0,0,0,180,2.2,8,8,777.7,77777,9,999999999,0,0.0000,0,0,999.000,0.1,99.0
2022,6,1,3,0,?9?9?9?9E0?9?9?9?9*9?9?9?9?9*9?9*9*9?9*_?9?9*9?9*9,20.9,18.4,83,98090,0,1328,390,0,0,0,0,0,0,0,180,2.2,8,8,777.7,77777,9,999999999,0,0.0000,0,0,999.000,0.0,99.0
2022,6,1,4,0,?9?9?9?9E0?9?9?9?9*9?9?9?9?9*9?9*9*9?9*_?9?9*9?9*9,20.8,18.4,83,98090,0,1327,389,0,0,0,0,0,0,0,180,2.2,8,8,777.7,77777,9,999999999,0,0.0000,0,0,999.000,0.0,99.0
2022,6,1,5,0,?9?9?9?9E0?9?9?9?9*9?9?9?9?9*9?9*9*9?9*_?9?9*9?9*9,20.7,18.4,84,98090,0,1327,389,0,0,0,0,0,0,0,180,2.2,8,8,777.7,77777,9,999999999,0,0.0000,0,0,999.000,0.0,99.0
2022,6,1,6,0,?9?9?9?9E0?9?9?9?9*9?9?9?9?9*9?9*9*9?9*_?9?9*9?9*9,20.6,18.4,88,98090,0,1327,388,0,0,0,0,0,0,0,180,2.2,8,8,777.7,77777,9,999999999,0,0.0000,0,0,999.000,0.0,99.0
2022,6,1,7,0,?9?9?9?9E0?9?9?9?9*9?9?9?9?9*9?9*9*9?9*_?9?9*9?9*9,20.5,18.4,84,98090,50,1327,388,0,0,0,0,0,0,0,180,2.2,8,8,777.7,77777,9,999999999,0,0.0000,0,0,999.000,0.0,99.0
2022,6,1,8,0,?9?9?9?9E0?9?9?9?9*9?9?9?9?9*9?9*9*9?9*_?9?9*9?9*9,20.5,18.4,84,98090,328,1327,387,41,0,41,4962,0,4549,54,180,2.2,8,8,777.7,77777,9,999999999,0,0.0000,0,0,999.000,0.0,99.0
2022,6,1,9,0,?9?9?9?9E0?9?9?9?9*9?9?9?9?9*9?9*9*9?9*_?9?9*9?9*9,21.2,18.3,80,98090,575,1327,391,61,0,61,7271,0,6665,45,180,2.2,8,8,777.7,77777,9,999999999,0,0.0000,0,0,999.000,0.0,99.0
2022,6,1,10,0,?9?9?9?9E0?9?9?9?9*9?9?9?9?9*9?9*9*9?9*_?9?9*9?9*9,22.4,18.2,74,98090,772,1327,397,272,43,247,32641,4098,27163,135,180,2.2,8,8,777.7,77777,9,999999999,0,0.0000,0,0,999.000,0.0,99.0
2022,6,1,11,0,?9?9?9?9E0?9?9?9?9*9?9?9?9?9*9?9*9*9?9*_?9?9*9?9*9,23.2,18.1,70,98090,904,1327,402,355,51,321,42606,4803,35269,150,180,2.2,8,8,777.7,77777,9,999999999,0,0.0000,0,0,999.000,0.0,99.0
2022,6,1,12,0,?9?9?9?9E0?9?9?9?9*9?9?9?9?9*9?9*9*9?9*_?9?9*9?9*9,23.9,18.0,67,98090,962,1327,405,403,63,358,48400,5971,39357,157,180,2.2,8,8,777.7,77777,9,999999999,0,0.0000,0,0,999.000,0.0,99.0
2022,6,1,13,0,?9?9?9?9E0?9?9?9?9*9?9?9?9?9*9?9*9*9?9*_?9?9*9?9*9,24.4,17.9,65,98090,942,1327,408,413,77,359,49567,7283,39453,161,180,3.1,8,8,777.7,77777,9,999999999,0,0.0000,0,0,999.000,0.0,99.0
2022,6,1,14,0,?9?9?9?9E0?9?9?9?9*9?9?9?9?9*9?9*9*9?9*_?9?9*9?9*9,24.6,17.9,69,98090,846,1327,409,383,96,323,46019,9093,35477,161,180,4.5,8,8,777.7,77777,9,999999999,0,0.0000,0,0,999.000,0.0,99.0
2022,6,1,15,0,?9?9?9?9E0?9?9?9?9*9?9?9?9?9*9?9*9*9?9*_?9?9*9?9*9,24.7,17.9,77,98090,680,1327,410,317,167,231,38028,15900,25440,144,180,5.2,8,8,777.7,77777,9,999999999,8,0.0000,0,0,999.000,8.0,99.0
2022,6,1,16,0,?9?9?9?9E0?9?9?9?9*9?9?9?9?9*9?9*9*9?9*_?9?9*9?9*9,24.5,17.9,69,98090,455,1327,409,219,277,124,26254,26272,13659,116,180,4.6,8,8,777.7,77777,9,999999999,0,0.0000,0,0,999.000,0.4,99.0
2022,6,1,17,0,?9?9?9?9E0?9?9?9?9*9?9?9?9?9*9?9*9*9?9*_?9?9*9?9*9,24.1,18.0,71,98090,188,1327,406,100,238,66,11959,22565,7306,151,180,4.1,8,8,777.7,77777,9,999999999,0,0.0000,0,0,999.000,0.1,99.0
2022,6,1,18,0,?9?9?9?9E0?9?9?9?9*9?9?9?9?9*9?9*9*9?9*_?9?9*9?9*9,23.7,18.0,72,98090,0,1327,404,2,0,0,251,0,0,0,180,2.2,8,8,777.7,77777,9,999999999,0,0.0000,0,0,999.000,0.0,99.0
2022,6,1,19,0,?9?9?9?9E0?9?9?9?9*9?9?9?9?9*9?9*9*9?9*_?9?9*9?9*9,23.4,18.0,74,98090,0,1327,403,0,0,0,0,0,0,0,180,2.2,8,8,777.7,77777,9,999999999,0,0.0000,0,0,999.000,0.1,99.0
2022,6,1,20,0,?9?9?9?9E0?9?9?9?9*9?9?9?9?9*9?9*9*9?9*_?9?9*9?9*9,23.0,18.1,71,98090,0,1327,401,0,0,0,0,0,0,0,180,2.2,8,8,777.7,77777,9,999999999,0,0.0000,0,0,999.000,0.0,99.0
2022,6,1,21,0,?9?9?9?9E0?9?9?9?9*9?9?9?9?9*9?9*9*9?9*_?9?9*9?9*9,22.7,18.1,73,98090,0,1327,399,0,0,0,0,0,0,0,180,2.2,8,8,777.7,77777,9,999999999,0,0.0000,0,0,999.000,0.0,99.0
2022,6,1,22,0,?9?9?9?9E0?9?9?9?9*9?9?9?9?9*9?9*9*9?9*_?9?9*9?9*9,22.3,18.2,74,98090,0,1327,397,0,0,0,0,0,0,0,180,2.2,8,8,777.7,77777,9,999999999,0,0.0000,0,0,999.000,0.0,99.0
2022,6,1,23,0,?9?9?9?9E0?9?9?9?9*9?9?9?9?9*9?9*9*9?9*_?9?9*9?9*9,22.0,18.2,76,98090,0,1327,395,0,0,0,0,0,0,0,180,2.2,8,8,777.7,77777,9,999999999,0,0.0000,0,0,999.000,0.0,99.0
2022,6,1,24,0,?9?9?9?9E0?9?9?9?9*9?9?9?9?9*9?9*9*9?9*_?9?9*9?9*9,21.6,18.9,81,98090,0,1327,394,0,0,0,0,0,0,0,180,1.7,8,8,777.7,77777,9,999999999,0,0.0000,0,0,999.000,0.1,99.0
2022,6,2,1,0,?9?9?9?9E0?9?9?9?9*9?9?9?9?9*9?9*9*9?9*_?9?9*9?9*9,21.5,18.9,81,98090,0,1327,393,0,0,0,0,0,0,0,180,1.7,8,8,777.7,77777,9,999999999,0,0.0000,0,0,999.000,0.1,99.0
2022,6,2,2,0,?9?9?9?9E0?9?9?9?9*9?9?9?9?9*9?9*9*9?9*_?9?9*9?9*9,21.3,19.0,82,98090,0,1327,392,0,0,0,0,0,0,0,180,1.7,8,8,777.7,77777,9,999999999,0,0.0000,0,0,999.000,0.2,99.0
2022,6,2,3,0,?9?9?9?9E0?9?9?9?9*9?9?9?9?9*9?9*9*9?9*_?9?9*9?9*9,21.1,19.0,83,98090,0,1327,391,0,0,0,0,0,0,0,180,1.7,8,8,777.7,77777,9,999999999,0,0.0000,0,0,999.000,0.0,99.0
2022,6,2,4,0,?9?9?9?9E0?9?9?9?9*9?9?9?9?9*9?9*9*9?9*_?9?9*9?9*9,20.9,19.0,80,98090,0,1327,390,0,0,0,0,0,0,0,180,1.7,8,8,777.7,77777,9,999999999,0,0.0000,0,0,999.000,0.0,99.0
2022,6,2,5,0,?9?9?9?9E0?9?9?9?9*9?9?9?9?9*9?9*9*9?9*_?9?9*9?9*9,20.7,19.0,81,98090,0,1327,390,0,0,0,0,0,0,0,180,1.7,8,8,777.7,77777,9,999999999,0,0.0000,0,0,999.000,0.0,99.0
2022,6,2,6,0,?9?9?9?9E0?9?9?9?9*9?9?9?9?9*9?9*9*9?9*_?9?9*9?9*9,20.6,19.0,84,98090,0,1327,389,0,0,0,0,0,0,0,180,1.7,8,8,777.7,77777,9,999999999,0,0.0000,0,0,999.000,0.6,99.0
2022,6,2,7,0,?9?9?9?9E0?9?9?9?9*9?9?9?9?9*9?9*9*9?9*_?9?9*9?9*9,20.5,19.0,91,98090,48,1327,388,0,0,0,0,0,0,0,180,1.7,8,8,777.7,77777,9,999999999,14,0.0000,0,0,999.000,14.3,99.0
2022,6,2,8,0,?9?9?9?9E0?9?9?9?9*9?9?9?9?9*9?9*9*9?9*_?9?9*9?9*9,20.4,19.0,85,98090,325,1327,388,45,0,45,5360,0,4914,58,180,1.7,8,8,777.7,77777,9,999999999,0,0.0000,0,0,999.000,0.0,99.0
2022,6,2,9,0,?9?9?9?9E0?9?9?9?9*9?9?9?9?9*9?9*9*9?9*_?9?9*9?9*9,22.2,18.9,78,98090,573,1327,397,177,40,160,21259,3800,17590,118,180,1.7,8,8,777.7,77777,9,999999999,0,0.0000,0,0,999.000,0.0,99.0
2022,6,2,10,0,?9?9?9?9E0?9?9?9?9*9?9?9?9?9*9?9*9*9?9*_?9?9*9?9*9,23.3,18.8,72,98090,770,1327,397,299,69,259,35869,6509,28512,142,180,1.7,7,7,777.7,77777,9,999999999,0,0.0000,0,0,999.000,0.0,99.0
2022,6,2,11,0,?9?9?9?9E0?9?9?9?9*9?9?9?9?9*9?9*9*9?9*_?9?9*9?9*9,24.2,18.7,69,98090,901,1327,401,391,76,339,46873,7201,37305,159,180,2.0,7,7,777.7,77777,9,999999999,0,0.0000,0,0,999.000,0.0,99.0
2022,6,2,12,0,?9?9?9?9E0?9?9?9?9*9?9?9?9?9*9?9*9*9?9*_?9?9*9?9*9,24.9,18.7,67,98090,960,1327,405,444,94,376,53278,8899,41389,166,180,3.1,7,7,777.7,77777,9,999999999,0,0.0000,0,0,999.000,0.0,99.0
2022,6,2,13,0,?9?9?9?9E0?9?9?9?9*9?9?9?9?9*9?9*9*9?9*_?9?9*9?9*9,25.4,18.6,65,98090,940,1327,408,455,114,374,54580,10801,41175,168,180,4.5,7,7,777.7,77777,9,999999999,0,0.0000,0,0,999.000,0.0,99.0
2022,6,2,14,0,?9?9?9?9E0?9?9?9?9*9?9?9?9?9*9?9*9*9?9*_?9?9*9?9*9,25.7,18.6,64,98090,844,1327,409,422,141,333,50677,13367,36615,167,180,5.3,7,7,777.7,77777,9,999999999,0,0.0000,0,0,999.000,0.0,99.0
2022,6,2,15,0,?9?9?9?9E0?9?9?9?9*9?9?9?9?9*9?9*9*9?9*_?9?9*9?9*9,25.8,18.6,64,98090,678,1327,410,349,303,194,41875,28745,21390,121,180,6.0,7,7,777.7,77777,9,999999999,0,0.0000,0,0,999.000,0.0,99.0
2022,6,2,16,0,?9?9?9?9E0?9?9?9?9*9?9?9?9?9*9?9*9*9?9*_?9?9*9?9*9,25.5,18.6,68,98090,454,1327,415,241,332,128,28897,31497,14039,119,180,5.5,8,8,777.7,77777,9,999999999,0,0.0000,0,0,999.000,0.1,99.0
2022,6,2,17,0,?9?9?9?9E0?9?9?9?9*9?9?9?9?9*9?9*9*9?9*_?9?9*9?9*9,24.9,18.7,70,98090,188,1327,412,110,296,68,13144,28136,7504,156,180,4.7,8,8,777.7,77777,9,999999999,0,0.0000,0,0,999.000,0.2,99.0
2022,6,2,18,0,?9?9?9?9E0?9?9?9?9*9?9?9?9?9*9?9*9*9?9*_?9?9*9?9*9,24.5,18.7,68,98090,0,1327,403,2,0,0,270,0,0,0,180,3.8,7,7,777.7,77777,9,999999999,0,0.0000,0,0,999.000,0.0,99.0
2022,6,2,19,0,?9?9?9?9E0?9?9?9?9*9?9?9?9?9*9?9*9*9?9*_?9?9*9?9*9,24.0,18.7,73,98090,0,1327,400,0,0,0,0,0,0,0,180,2.6,7,7,777.7,77777,9,999999999,0,0.0000,0,0,999.000,0.0,99.0
2022,6,2,20,0,?9?9?9?9E0?9?9?9?9*9?9?9?9?9*9?9*9*9?9*_?9?9*9?9*9,23.6,18.8,74,98090,0,1327,394,0,0,0,0,0,0,0,180,1.7,6,6,777.7,77777,9,999999999,0,0.0000,0,0,999.000,0.4,99.0
2022,6,2,21,0,?9?9?9?9E0?9?9?9?9*9?9?9?9?9*9?9*9*9?9*_?9?9*9?9*9,23.1,18.8,79,98090,0,1327,391,0,0,0,0,0,0,0,180,1.7,6,6,777.7,77777,9,999999999,1,0.0000,0,0,999.000,1.0,99.0
2022,6,2,22,0,?9?9?9?9E0?9?9?9?9*9?9?9?9?9*9?9*9*9?9*_?9?9*9?9*9,22.6,18.9,74,98090,0,1327,385,0,0,0,0,0,0,0,180,1.7,5,5,777.7,77777,9,999999999,0,0.0000,0,0,999.000,0.0,99.0
2022,6,2,23,0,?9?9?9?9E0?9?9?9?9*9?9?9?9?9*9?9*9*9?9*_?9?9*9?9*9,22.2,18.9,75,98090,0,1327,383,0,0,0,0,0,0,0,180,1.7,5,5,777.7,77777,9,999999999,0,0.0000,0,0,999.000,0.0,99.0
2022,6,2,24,0,?9?9?9?9E0?9?9?9?9*9?9?9?9?9*9?9*9*9?9*_?9?9*9?9*9,21.7,18.2,79,98090,0,1327,377,0,0,0,0,0,0,0,180,1.1,4,4,777.7,77777,9,999999999,0,0.0000,0,0,999.000,0.0,99.0
2022,6,3,1,0,?9?9?9?9E0?9?9?9?9*9?9?9?9?9*9?9*9*9?9*_?9?9*9?9*9,21.5,18.2,80,98090,0,1327,376,0,0,0,0,0,0,0,180,1.1,4,4,777.7,77777,9,999999999,0,0.0000,0,0,999.000,0.0,99.0
2022,6,3,2,0,?9?9?9?9E0?9?9?9?9*9?9?9?9?9*9?9*9*9?9*_?9?9*9?9*9,21.3,18.2,82,98090,0,1327,372,0,0,0,0,0,0,0,180,1.1,3,3,777.7,77777,9,999999999,0,0.0000,0,0,999.000,0.0,99.0
2022,6,3,3,0,?9?9?9?9E0?9?9?9?9*9?9?9?9?9*9?9*9*9?9*_?9?9*9?9*9,21.0,18.2,83,98090,0,1327,371,0,0,0,0,0,0,0,180,1.1,3,3,777.7,77777,9,999999999,0,0.0000,0,0,999.000,0.0,99.0
2022,6,3,4,0,?9?9?9?9E0?9?9?9?9*9?9?9?9?9*9?9*9*9?9*_?9?9*9?9*9,20.8,18.1,84,98090,0,1327,366,0,0,0,0,0,0,0,180,1.1,2,2,777.7,77777,9,999999999,0,0.0000,0,0,999.000,0.0,99.0
2022,6,3,5,0,?9?9?9?9E0?9?9?9?9*9?9?9?9?9*9?9*9*9?9*_?9?9*9?9*9,20.6,18.1,85,98090,0,1327,365,0,0,0,0,0,0,0,180,1.1,2,2,777.7,77777,9,999999999,0,0.0000,0,0,999.000,0.0,99.0
2022,6,3,6,0,?9?9?9?9E0?9?9?9?9*9?9?9?9?9*9?9*9*9?9*_?9?9*9?9*9,20.4,18.1,86,98090,0,1327,359,0,0,0,0,0,0,0,180,1.1,1,1,777.7,77777,9,999999999,0,0.0000,0,0,999.000,0.0,99.0
2022,6,3,7,0,?9?9?9?9E0?9?9?9?9*9?9?9?9?9*9?9*9*9?9*_?9?9*9?9*9,20.3,18.1,87,98090,46,1327,358,0,0,0,0,0,0,0,180,1.1,1,1,777.7,77777,9,999999999,0,0.0000,0,0,999.000,0.0,99.0
2022,6,3,8,0,?9?9?9?9E0?9?9?9?9*9?9?9?9?9*9?9*9*9?9*_?9?9*9?9*9,20.1,18.1,88,98090,323,1327,351,142,204,92,16986,19335,10143,121,180,1.2,0,0,777.7,77777,9,999999999,0,0.0000,0,0,999.000,0.0,99.0
2022,6,3,9,0,?9?9?9?9E0?9?9?9?9*9?9?9?9?9*9?9*9*9?9*_?9?9*9?9*9,24.2,18.5,68,98090,571,1327,390,274,259,162,32856,24645,17862,120,180,1.5,4,4,777.7,77777,9,999999999,0,0.0000,0,0,999.000,0.0,99.0
2022,6,3,10,0,?9?9?9?9E0?9?9?9?9*9?9?9?9?9*9?9*9*9?9*_?9?9*9?9*9,23.9,18.4,75,98090,767,1327,406,162,1,161,19441,128,17735,89,180,2.3,8,8,777.7,77777,9,999999999,0,0.0000,0,0,999.000,0.1,99.0
2022,6,3,11,0,?9?9?9?9E0?9?9?9?9*9?9?9?9?9*9?9*9*9?9*_?9?9*9?9*9,24.5,18.5,72,98090,899,1327,409,310,35,286,37175,3369,31435,134,180,3.6,8,8,777.7,77777,9,999999999,0,0.0000,0,0,999.000,0.0,99.0
2022,6,3,12,0,?9?9?9?9E0?9?9?9?9*9?9?9?9?9*9?9*9*9?9*_?9?9*9?9*9,25.2,18.5,64,98090,957,1327,413,394,73,341,47298,6973,37532,151,180,4.0,8,8,777.7,77777,9,999999999,0,0.0000,0,0,999.000,0.0,99.0
2022,6,3,13,0,?9?9?9?9E0?9?9?9?9*9?9?9?9?9*9?9*9*9?9*_?9?9*9?9*9,25.7,18.6,68,98090,938,1327,416,404,90,341,48468,8514,37461,153,180,4.8,8,8,777.7,77777,9,999999999,0,0.0000,0,0,999.000,0.0,99.0
2022,6,3,14,0,?9?9?9?9E0?9?9?9?9*9?9?9?9?9*9?9*9*9?9*_?9?9*9?9*9,25.6,18.6,79,98090,842,1327,416,264,25,249,31718,2328,27365,125,180,5.5,8,8,777.7,77777,9,999999999,14,0.0000,0,0,999.000,14.3,99.0
2022,6,3,15,0,?9?9?9?9E0?9?9?9?9*9?9?9?9?9*9?9*9*9?9*_?9?9*9?9*9,25.7,18.6,68,98090,677,1327,416,310,171,223,37192,16242,24506,139,180,5.2,8,8,777.7,77777,9,999999999,0,0.0000,0,0,999.000,0.1,99.0
2022,6,3,16,0,?9?9?9?9E0?9?9?9?9*9?9?9?9?9*9?9*9*9?9*_?9?9*9?9*9,25.5,18.6,69,98090,453,1327,415,214,271,121,25657,25784,13346,113,180,5.3,8,8,777.7,77777,9,999999999,0,0.0000,0,0,999.000,0.1,99.0
2022,6,3,17,0,?9?9?9?9E0?9?9?9?9*9?9?9?9?9*9?9*9*9?9*_?9?9*9?9*9,24.9,18.5,71,98090,187,1327,411,97,271,59,11653,25763,6532,136,180,5.0,8,8,777.7,77777,9,999999999,0,0.0000,0,0,999.000,0.0,99.0
2022,6,3,18,0,?9?9?9?9E0?9?9?9?9*9?9?9?9?9*9?9*9*9?9*_?9?9*9?9*9,24.4,18.5,73,98090,0,1327,409,2,0,0,234,0,0,0,180,4.2,8,8,777.7,77777,9,999999999,0,0.0000,0,0,999.000,0.2,99.0
2022,6,3,19,0,?9?9?9?9E0?9?9?9?9*9?9?9?9?9*9?9*9*9?9*_?9?9*9?9*9,24.0,18.4,80,98090,0,1327,407,0,0,0,0,0,0,0,180,3.8,8,8,777.7,77777,9,999999999,1,0.0000,0,0,999.000,1.0,99.0
2022,6,3,20,0,?9?9?9?9E0?9?9?9?9*9?9?9?9?9*9?9*9*9?9*_?9?9*9?9*9,23.6,18.4,76,98090,0,1327,404,0,0,0,0,0,0,0,180,2.8,8,8,777.7,77777,9,999999999,0,0.0000,0,0,999.000,0.4,99.0
2022,6,3,21,0,?9?9?9?9E0?9?9?9?9*9?9?9?9?9*9?9*9*9?9*_?9?9*9?9*9,23.2,18.4,78,98090,0,1327,402,0,0,0,0,0,0,0,180,1.8,8,8,777.7,77777,9,999999999,0,0.0000,0,0,999.000,0.6,99.0
2022,6,3,22,0,?9?9?9?9E0?9?9?9?9*9?9?9?9?9*9?9*9*9?9*_?9?9*9?9*9,22.7,18.3,80,98090,0,1327,399,0,0,0,0,0,0,0,180,1.6,8,8,777.7,77777,9,999999999,0,0.0000,0,0,999.000,0.2,99.0
2022,6,3,23,0,?9?9?9?9E0?9?9?9?9*9?9?9?9?9*9?9*9*9?9*_?9?9*9?9*9,22.3,18.3,82,98090,0,1327,397,0,0,0,0,0,0,0,180,1.2,8,8,777.7,77777,9,999999999,0,0.0000,0,0,999.000,0.0,99.0
2022,6,3,24,0,?9?9?9?9E0?9?9?9?9*9?9?9?9?9*9?9*9*9?9*_?9?9*9?9*9,21.9,17.3,75,98090,0,1327,394,0,0,0,0,0,0,0,180,1.4,8,8,777.7,77777,9,999999999,0,0.0000,0,0,999.000,0.0,99.0
2022,6,4,1,0,?9?9?9?9E0?9?9?9?9*9?9?9?9?9*9?9*9*9?9*_?9?9*9?9*9,21.7,17.3,75,98090,0,1327,392,0,0,0,0,0,0,0,180,1.5,8,8,777.7,77777,9,999999999,0,0.0000,0,0,999.000,0.0,99.0
2022,6,4,2,0,?9?9?9?9E0?9?9?9?9*9?9?9?9?9*9?9*9*9?9*_?9?9*9?9*9,21.5,17.2,76,98090,0,1327,391,0,0,0,0,0,0,0,180,1.4,8,8,777.7,77777,9,999999999,0,0.0000,0,0,999.000,0.0,99.0
2022,6,4,3,0,?9?9?9?9E0?9?9?9?9*9?9?9?9?9*9?9*9*9?9*_?9?9*9?9*9,21.2,17.2,77,98090,0,1327,390,0,0,0,0,0,0,0,180,1.4,8,8,777.7,77777,9,999999999,0,0.0000,0,0,999.000,0.0,99.0
2022,6,4,4,0,?9?9?9?9E0?9?9?9?9*9?9?9?9?9*9?9*9*9?9*_?9?9*9?9*9,21.0,17.2,78,98090,0,1326,389,0,0,0,0,0,0,0,180,1.4,8,8,777.7,77777,9,999999999,0,0.0000,0,0,999.000,0.0,99.0
2022,6,4,5,0,?9?9?9?9E0?9?9?9?9*9?9?9?9?9*9?9*9*9?9*_?9?9*9?9*9,20.8,17.1,79,98090,0,1326,388,0,0,0,0,0,0,0,180,1.4,8,8,777.7,77777,9,999999999,0,0.0000,0,0,999.000,0.0,99.0
2022,6,4,6,0,?9?9?9?9E0?9?9?9?9*9?9?9?9?9*9?9*9*9?9*_?9?9*9?9*9,20.7,17.1,80,98090,0,1326,387,0,0,0,0,0,0,0,180,1.4,8,8,777.7,77777,9,999999999,0,0.0000,0,0,999.000,0.0,99.0
2022,6,4,7,0,?9?9?9?9E0?9?9?9?9*9?9?9?9?9*9?9*9*9?9*_?9?9*9?9*9,20.5,17.1,80,98090,44,1326,386,0,0,0,0,0,0,0,180,1.4,8,8,777.7,77777,9,999999999,0,0.0000,0,0,999.000,0.0,99.0
2022,6,4,8,0,?9?9?9?9E0?9?9?9?9*9?9?9?9?9*9?9*9*9?9*_?9?9*9?9*9,20.4,17.1,81,98090,321,1326,385,61,0,61,7324,0,6713,81,180,1.4,8,8,777.7,77777,9,999999999,0,0.0000,0,0,999.000,0.0,99.0
2022,6,4,9,0,?9?9?9?9E0?9?9?9?9*9?9?9?9?9*9?9*9*9?9*_?9?9*9?9*9,22.6,17.4,72,98090,568,1326,383,244,171,171,29298,16199,18832,127,180,2.1,5,5,777.7,77777,9,999999999,0,0.0000,0,0,999.000,0.0,99.0
2022,6,4,10,0,?9?9?9?9E0?9?9?9?9*9?9?9?9?9*9?9*9*9?9*_?9?9*9?9*9,23.8,17.5,67,98090,765,1326,387,404,278,244,48487,26431,26813,135,180,2.9,4,4,777.7,77777,9,999999999,0,0.0000,0,0,999.000,0.0,99.0
2022,6,4,11,0,?9?9?9?9E0?9?9?9?9*9?9?9?9?9*9?9*9*9?9*_?9?9*9?9*9,25.0,17.7,63,98090,897,1326,390,552,472,233,66202,44821,25613,110,180,3.8,3,3,777.7,77777,9,999999999,0,0.0000,0,0,999.000,0.0,99.0
2022,6,4,12,0,?9?9?9?9E0?9?9?9?9*9?9?9?9?9*9?9*9*9?9*_?9?9*9?9*9,25.9,17.8,61,98090,955,1326,391,635,594,207,76146,56470,22730,91,180,4.4,2,2,777.7,77777,9,999999999,0,0.0000,0,0,999.000,0.0,99.0
2022,6,4,13,0,?9?9?9?9E0?9?9?9?9*9?9?9?9?9*9?9*9*9?9*_?9?9*9?9*9,26.6,17.9,58,98090,936,1326,382,678,778,129,81372,73936,14196,58,180,4.4,0,0,777.7,77777,9,999999999,0,0.0000,0,0,999.000,0.0,99.0
2022,6,4,14,0,?9?9?9?9E0?9?9?9?9*9?9?9?9?9*9?9*9*9?9*_?9?9*9?9*9,27.0,17.9,57,98090,841,1326,392,620,851,81,74441,80856,8927,41,180,5.0,1,1,777.7,77777,9,999999999,0,0.0000,0,0,999.000,0.0,99.0
2022,6,4,15,0,?9?9?9?9E0?9?9?9?9*9?9?9?9?9*9?9*9*9?9*_?9?9*9?9*9,27.1,18.0,57,98090,676,1326,398,508,739,132,60972,70170,14542,83,180,5.5,2,2,777.7,77777,9,999999999,0,0.0000,0,0,999.000,0.0,99.0
2022,6,4,16,0,?9?9?9?9E0?9?9?9?9*9?9?9?9?9*9?9*9*9?9*_?9?9*9?9*9,26.8,17.9,58,98090,452,1326,400,353,483,189,42374,45903,20763,177,180,5.2,3,3,777.7,77777,9,999999999,0,0.0000,0,0,999.000,0.0,99.0
2022,6,4,17,0,?9?9?9?9E0?9?9?9?9*9?9?9?9?9*9?9*9*9?9*_?9?9*9?9*9,26.1,17.8,60,98090,187,1326,406,164,334,117,19646,31777,12902,269,180,4.6,6,6,777.7,77777,9,999999999,0,0.0000,0,0,999.000,0.0,99.0
2022,6,4,18,0,?9?9?9?9E0?9?9?9?9*9?9?9?9?9*9?9*9*9?9*_?9?9*9?9*9,25.6,17.8,62,98090,0,1326,403,5,0,0,545,0,0,0,180,3.3,6,6,777.7,77777,9,999999999,0,0.0000,0,0,999.000,0.0,99.0
2022,6,4,19,0,?9?9?9?9E0?9?9?9?9*9?9?9?9?9*9?9*9*9?9*_?9?9*9?9*9,25.0,17.7,63,98090,0,1326,400,0,0,0,0,0,0,0,180,2.7,6,6,777.7,77777,9,999999999,0,0.0000,0,0,999.000,0.0,99.0
2022,6,4,20,0,?9?9?9?9E0?9?9?9?9*9?9?9?9?9*9?9*9*9?9*_?9?9*9?9*9,24.5,17.6,65,98090,0,1326,397,0,0,0,0,0,0,0,180,2.2,6,6,777.7,77777,9,999999999,0,0.0000,0,0,999.000,0.0,99.0
2022,6,4,21,0,?9?9?9?9E0?9?9?9?9*9?9?9?9?9*9?9*9*9?9*_?9?9*9?9*9,24.0,17.6,67,98090,0,1326,399,0,0,0,0,0,0,0,180,1.4,7,7,777.7,77777,9,999999999,0,0.0000,0,0,999.000,0.0,99.0
2022,6,4,22,0,?9?9?9?9E0?9?9?9?9*9?9?9?9?9*9?9*9*9?9*_?9?9*9?9*9,23.5,17.5,69,98090,0,1326,396,0,0,0,0,0,0,0,180,1.4,7,7,777.7,77777,9,999999999,0,0.0000,0,0,999.000,0.0,99.0
2022,6,4,23,0,?9?9?9?9E0?9?9?9?9*9?9?9?9?9*9?9*9*9?9*_?9?9*9?9*9,22.9,17.4,71,98090,0,1326,393,0,0,0,0,0,0,0,180,1.4,7,7,777.7,77777,9,999999999,0,0.0000,0,0,999.000,0.0,99.0
2022,6,4,24,0,?9?9?9?9E0?9?9?9?9*9?9?9?9?9*9?9*9*9?9*_?9?9*9?9*9,22.4,17.9,75,98090,0,1326,391,0,0,0,0,0,0,0,180,1.5,7,7,777.7,77777,9,999999999,0,0.0000,0,0,999.000,0.0,99.0
2022,6,5,1,0,?9?9?9?9E0?9?9?9?9*9?9?9?9?9*9?9*9*9?9*_?9?9*9?9*9,22.1,17.8,76,98090,0,1326,389,0,0,0,0,0,0,0,180,1.5,7,7,777.7,77777,9,999999999,0,0.0000,0,0,999.000,0.0,99.0
2022,6,5,2,0,?9?9?9?9E0?9?9?9?9*9?9?9?9?9*9?9*9*9?9*_?9?9*9?9*9,21.9,17.8,77,98090,0,1326,388,0,0,0,0,0,0,0,180,1.5,7,7,777.7,77777,9,999999999,0,0.0000,0,0,999.000,0.0,99.0
2022,6,5,3,0,?9?9?9?9E0?9?9?9?9*9?9?9?9?9*9?9*9*9?9*_?9?9*9?9*9,21.6,17.8,78,98090,0,1326,387,0,0,0,0,0,0,0,180,1.5,7,7,777.7,77777,9,999999999,0,0.0000,0,0,999.000,0.0,99.0
2022,6,5,4,0,?9?9?9?9E0?9?9?9?9*9?9?9?9?9*9?9*9*9?9*_?9?9*9?9*9,21.4,17.8,79,98090,0,1326,385,0,0,0,0,0,0,0,180,1.5,7,7,777.7,77777,9,999999999,0,0.0000,0,0,999.000,0.0,99.0
2022,6,5,5,0,?9?9?9?9E0?9?9?9?9*9?9?9?9?9*9?9*9*9?9*_?9?9*9?9*9,21.1,17.7,81,98090,0,1326,390,0,0,0,0,0,0,0,180,1.5,8,8,777.7,77777,9,999999999,0,0.0000,0,0,999.000,0.0,99.0
2022,6,5,6,0,?9?9?9?9E0?9?9?9?9*9?9?9?9?9*9?9*9*9?9*_?9?9*9?9*9,20.9,17.7,81,98090,0,1326,389,0,0,0,0,0,0,0,180,1.5,8,8,777.7,77777,9,999999999,0,0.0000,0,0,999.000,0.0,99.0
2022,6,5,7,0,?9?9?9?9E0?9?9?9?9*9?9?9?9?9*9?9*9*9?9*_?9?9*9?9*9,20.7,17.7,82,98090,42,1326,388,0,0,0,0,0,0,0,180,1.5,8,8,777.7,77777,9,999999999,0,0.0000,0,0,999.000,0.0,99.0
2022,6,5,8,0,?9?9?9?9E0?9?9?9?9*9?9?9?9?9*9?9*9*9?9*_?9?9*9?9*9,20.6,17.7,83,98090,319,1326,387,67,0,67,8028,0,7359,89,180,1.5,8,8,777.7,77777,9,999999999,0,0.0000,0,0,999.000,0.0,99.0
2022,6,5,9,0,?9?9?9?9E0?9?9?9?9*9?9?9?9?9*9?9*9*9?9*_?9?9*9?9*9,23.1,18.0,72,98090,566,1326,387,245,175,170,29342,16600,18705,127,180,1.5,5,5,777.7,77777,9,999999999,0,0.0000,0,0,999.000,0.0,99.0
2022,6,5,10,0,?9?9?9?9E0?9?9?9?9*9?9?9?9?9*9?9*9*9?9*_?9?9*9?9*9,24.6,18.1,67,98090,762,1326,388,423,353,220,50735,33563,24179,122,180,2.5,3,3,777.7,77777,9,999999999,0,0.0000,0,0,999.000,0.0,99.0
2022,6,5,11,0,?9?9?9?9E0?9?9?9?9*9?9?9?9?9*9?9*9*9?9*_?9?9*9?9*9,25.8,18.2,63,98090,894,1326,395,534,414,255,64079,39345,28022,120,180,3.3,3,3,777.7,77777,9,999999999,0,0.0000,0,0,999.000,0.0,99.0
2022,6,5,12,0,?9?9?9?9E0?9?9?9?9*9?9?9?9?9*9?9*9*9?9*_?9?9*9?9*9,26.8,18.4,59,98090,953,1326,397,633,593,206,75908,56379,22680,91,180,4.2,2,2,777.7,77777,9,999999999,0,0.0000,0,0,999.000,0.0,99.0
2022,6,5,13,0,?9?9?9?9E0?9?9?9?9*9?9?9?9?9*9?9*9*9?9*_?9?9*9?9*9,27.3,18.4,58,98090,934,1326,410,562,413,271,67417,39268,29778,122,180,4.7,5,5,777.7,77777,9,999999999,0,0.0000,0,0,999.000,0.0,99.0
2022,6,5,14,0,?9?9?9?9E0?9?9?9?9*9?9?9?9?9*9?9*9*9?9*_?9?9*9?9*9,27.5,18.5,57,98090,839,1326,411,529,543,186,63484,51568,20426,93,180,5.4,5,5,777.7,77777,9,999999999,0,0.0000,0,0,999.000,0.0,99.0
2022,6,5,15,0,?9?9?9?9E0?9?9?9?9*9?9?9?9?9*9?9*9*9?9*_?9?9*9?9*9,27.6,18.5,57,98090,674,1326,408,468,691,117,56192,65611,12904,73,180,5.3,4,4,777.7,77777,9,999999999,0,0.0000,0,0,999.000,0.0,99.0
2022,6,5,16,0,?9?9?9?9E0?9?9?9?9*9?9?9?9?9*9?9*9*9?9*_?9?9*9?9*9,27.3,18.4,58,98090,451,1326,413,309,461,153,37086,43755,16786,143,180,5.7,6,6,777.7,77777,9,999999999,0,0.0000,0,0,999.000,0.0,99.0
2022,6,5,17,0,?9?9?9?9E0?9?9?9?9*9?9?9?9?9*9?9*9*9?9*_?9?9*9?9*9,26.5,18.3,60,98090,186,1326,413,141,283,102,16944,26918,11214,234,180,5.0,7,7,777.7,77777,9,999999999,0,0.0000,0,0,999.000,0.0,99.0
2022,6,5,18,0,?9?9?9?9E0?9?9?9?9*9?9?9?9?9*9?9*9*9?9*_?9?9*9?9*9,25.8,18.3,63,98090,0,1326,410,3,0,0,344,0,0,0,180,3.8,7,7,777.7,77777,9,999999999,0,0.0000,0,0,999.000,0.0,99.0
2022,6,5,19,0,?9?9?9?9E0?9?9?9?9*9?9?9?9?9*9?9*9*9?9*_?9?9*9?9*9,25.2,18.2,65,98090,0,1326,406,0,0,0,0,0,0,0,180,2.4,7,7,777.7,77777,9,999999999,0,0.0000,0,0,999.000,0.0,99.0
2022,6,5,20,0,?9?9?9?9E0?9?9?9?9*9?9?9?9?9*9?9*9*9?9*_?9?9*9?9*9,24.5,18.1,67,98090,0,1326,402,0,0,0,0,0,0,0,180,1.7,7,7,777.7,77777,9,999999999,0,0.0000,0,0,999.000,0.0,99.0
2022,6,5,21,0,?9?9?9?9E0?9?9?9?9*9?9?9?9?9*9?9*9*9?9*_?9?9*9?9*9,23.9,18.0,69,98090,0,1326,399,0,0,0,0,0,0,0,180,1.5,7,7,777.7,77777,9,999999999,0,0.0000,0,0,999.000,0.0,99.0
2022,6,5,22,0,?9?9?9?9E0?9?9?9?9*9?9?9?9?9*9?9*9*9?9*_?9?9*9?9*9,23.2,18.0,72,98090,0,1326,395,0,0,0,0,0,0,0,180,1.5,7,7,777.7,77777,9,999999999,0,0.0000,0,0,999.000,0.0,99.0
2022,6,5,23,0,?9?9?9?9E0?9?9?9?9*9?9?9?9?9*9?9*9*9?9*_?9?9*9?9*9,22.5,17.9,74,98090,0,1326,392,0,0,0,0,0,0,0,180,1.5,7,7,777.7,77777,9,999999999,0,0.0000,0,0,999.000,0.0,99.0
2022,6,5,24,0,?9?9?9?9E0?9?9?9?9*9?9?9?9?9*9?9*9*9?9*_?9?9*9?9*9,21.9,18.0,74,98090,0,1326,388,0,0,0,0,0,0,0,180,2.1,7,7,777.7,77777,9,999999999,0,0.0000,0,0,999.000,0.0,99.0
2022,6,6,1,0,?9?9?9?9E0?9?9?9?9*9?9?9?9?9*9?9*9*9?9*_?9?9*9?9*9,21.6,17.9,75,98090,0,1326,393,0,0,0,0,0,0,0,180,2.1,8,8,777.7,77777,9,999999999,0,0.0000,0,0,999.000,0.0,99.0
2022,6,6,2,0,?9?9?9?9E0?9?9?9?9*9?9?9?9?9*9?9*9*9?9*_?9?9*9?9*9,21.2,17.9,80,98090,0,1326,391,0,0,0,0,0,0,0,180,2.1,8,8,777.7,77777,9,999999999,0,0.0000,0,0,999.000,0.0,99.0
2022,6,6,3,0,?9?9?9?9E0?9?9?9?9*9?9?9?9?9*9?9*9*9?9*_?9?9*9?9*9,20.9,17.9,89,98090,0,1326,389,0,0,0,0,0,0,0,180,2.1,8,8,777.7,77777,9,999999999,6,0.0000,0,0,999.000,6.3,99.0
2022,6,6,4,0,?9?9?9?9E0?9?9?9?9*9?9?9?9?9*9?9*9*9?9*_?9?9*9?9*9,20.6,17.8,82,98090,0,1326,387,0,0,0,0,0,0,0,180,2.1,8,8,777.7,77777,9,999999999,0,0.0000,0,0,999.000,0.3,99.0
2022,6,6,5,0,?9?9?9?9E0?9?9?9?9*9?9?9?9?9*9?9*9*9?9*_?9?9*9?9*9,20.3,17.8,83,98090,0,1326,386,0,0,0,0,0,0,0,180,2.1,8,8,777.7,77777,9,999999999,0,0.0000,0,0,999.000,0.1,99.0
2022,6,6,6,0,?9?9?9?9E0?9?9?9?9*9?9?9?9?9*9?9*9*9?9*_?9?9*9?9*9,20.0,17.8,84,98090,0,1326,384,0,0,0,0,0,0,0,180,2.1,8,8,777.7,77777,9,999999999,0,0.0000,0,0,999.000,0.2,99.0
2022,6,6,7,0,?9?9?9?9E0?9?9?9?9*9?9?9?9?9*9?9*9*9?9*_?9?9*9?9*9,19.8,17.7,85,98090,41,1326,383,0,0,0,0,0,0,0,180,2.1,8,8,777.7,77777,9,999999999,0,0.0000,0,0,999.000,0.1,99.0
2022,6,6,8,0,?9?9?9?9E0?9?9?9?9*9?9?9?9?9*9?9*9*9?9*_?9?9*9?9*9,19.6,17.7,82,98090,317,1326,382,40,0,40,4784,0,4386,53,180,2.1,8,8,777.7,77777,9,999999999,0,0.0000,0,0,999.000,0.0,99.0
2022,6,6,9,0,?9?9?9?9E0?9?9?9?9*9?9?9?9?9*9?9*9*9?9*_?9?9*9?9*9,22.1,18.0,73,98090,564,1326,395,168,32,154,20100,2997,16952,116,180,2.1,8,8,777.7,77777,9,999999999,0,0.0000,0,0,999.000,0.0,99.0
2022,6,6,10,0,?9?9?9?9E0?9?9?9?9*9?9?9?9?9*9?9*9*9?9*_?9?9*9?9*9,23.5,18.1,68,98090,760,1326,397,286,64,249,34295,6052,27422,138,180,2.1,7,7,777.7,77777,9,999999999,0,0.0000,0,0,999.000,0.0,99.0
2022,6,6,11,0,?9?9?9?9E0?9?9?9?9*9?9?9?9?9*9?9*9*9?9*_?9?9*9?9*9,24.8,18.2,65,98090,892,1326,404,375,68,330,45017,6415,36268,156,180,2.1,7,7,777.7,77777,9,999999999,0,0.0000,0,0,999.000,0.0,99.0
2022,6,6,12,0,?9?9?9?9E0?9?9?9?9*9?9?9?9?9*9?9*9*9?9*_?9?9*9?9*9,25.8,18.3,62,98090,951,1326,410,427,84,367,51287,7970,40395,163,180,2.7,7,7,777.7,77777,9,999999999,0,0.0000,0,0,999.000,0.0,99.0
2022,6,6,13,0,?9?9?9?9E0?9?9?9?9*9?9?9?9?9*9?9*9*9?9*_?9?9*9?9*9,26.5,18.4,60,98090,932,1326,414,438,102,367,52609,9698,40329,166,180,2.6,7,7,777.7,77777,9,999999999,0,0.0000,0,0,999.000,0.0,99.0
2022,6,6,14,0,?9?9?9?9E0?9?9?9?9*9?9?9?9?9*9?9*9*9?9*_?9?9*9?9*9,26.9,18.5,59,98090,838,1326,416,407,127,327,48881,12031,36009,165,180,4.3,7,7,777.7,77777,9,999999999,0,0.0000,0,0,999.000,0.0,99.0
2022,6,6,15,0,?9?9?9?9E0?9?9?9?9*9?9?9?9?9*9?9*9*9?9*_?9?9*9?9*9,27.0,18.5,59,98090,673,1326,417,337,218,226,40393,20755,24831,142,180,4.9,7,7,777.7,77777,9,999999999,0,0.0000,0,0,999.000,0.0,99.0
2022,6,6,16,0,?9?9?9?9E0?9?9?9?9*9?9?9?9?9*9?9*9*9?9*_?9?9*9?9*9,26.7,18.4,60,98090,451,1326,421,232,301,130,27848,28634,14279,122,180,4.6,8,8,777.7,77777,9,999999999,0,0.0000,0,0,999.000,0.0,99.0
2022,6,6,17,0,?9?9?9?9E0?9?9?9?9*9?9?9?9?9*9?9*9*9?9*_?9?9*9?9*9,25.9,18.4,62,98090,186,1326,417,105,276,67,12613,26193,7366,154,180,4.8,8,8,777.7,77777,9,999999999,0,0.0000,0,0,999.000,0.0,99.0
2022,6,6,18,0,?9?9?9?9E0?9?9?9?9*9?9?9?9?9*9?9*9*9?9*_?9?9*9?9*9,25.2,18.3,64,98090,0,1326,413,2,0,0,246,0,0,0,180,3.3,8,8,777.7,77777,9,999999999,0,0.0000,0,0,999.000,0.0,99.0
2022,6,6,19,0,?9?9?9?9E0?9?9?9?9*9?9?9?9?9*9?9*9*9?9*_?9?9*9?9*9,24.5,18.2,66,98090,0,1326,409,0,0,0,0,0,0,0,180,2.1,8,8,777.7,77777,9,999999999,0,0.0000,0,0,999.000,0.0,99.0
2022,6,6,20,0,?9?9?9?9E0?9?9?9?9*9?9?9?9?9*9?9*9*9?9*_?9?9*9?9*9,23.8,18.1,72,98090,0,1326,405,0,0,0,0,0,0,0,180,2.1,8,8,777.7,77777,9,999999999,0,0.0000,0,0,999.000,0.0,99.0
2022,6,6,21,0,?9?9?9?9E0?9?9?9?9*9?9?9?9?9*9?9*9*9?9*_?9?9*9?9*9,23.1,18.1,74,98090,0,1326,401,0,0,0,0,0,0,0,180,2.1,8,8,777.7,77777,9,999999999,0,0.0000,0,0,999.000,0.0,99.0
2022,6,6,22,0,?9?9?9?9E0?9?9?9?9*9?9?9?9?9*9?9*9*9?9*_?9?9*9?9*9,22.4,18.0,72,98090,0,1326,397,0,0,0,0,0,0,0,180,2.1,8,8,777.7,77777,9,999999999,0,0.0000,0,0,999.000,0.0,99.0
2022,6,6,23,0,?9?9?9?9E0?9?9?9?9*9?9?9?9?9*9?9*9*9?9*_?9?9*9?9*9,21.7,17.9,74,98090,0,1326,393,0,0,0,0,0,0,0,180,2.1,8,8,777.7,77777,9,999999999,0,0.0000,0,0,999.000,0.0,99.0
2022,6,6,24,0,?9?9?9?9E0?9?9?9?9*9?9?9?9?9*9?9*9*9?9*_?9?9*9?9*9,21.0,17.4,82,98090,0,1326,389,0,0,0,0,0,0,0,180,2.6,8,8,777.7,77777,9,999999999,0,0.0000,0,0,999.000,0.8,99.0
2022,6,7,1,0,?9?9?9?9E0?9?9?9?9*9?9?9?9?9*9?9*9*9?9*_?9?9*9?9*9,20.6,17.4,79,98090,0,1326,381,0,0,0,0,0,0,0,180,2.6,7,7,777.7,77777,9,999999999,0,0.0000,0,0,999.000,0.0,99.0
2022,6,7,2,0,?9?9?9?9E0?9?9?9?9*9?9?9?9?9*9?9*9*9?9*_?9?9*9?9*9,20.3,17.5,85,98090,0,1326,379,0,0,0,0,0,0,0,180,2.6,7,7,777.7,77777,9,999999999,0,0.0000,0,0,999.000,0.1,99.0
2022,6,7,3,0,?9?9?9?9E0?9?9?9?9*9?9?9?9?9*9?9*9*9?9*_?9?9*9?9*9,19.9,17.5,86,98090,0,1326,377,0,0,0,0,0,0,0,180,2.6,7,7,777.7,77777,9,999999999,0,0.0000,0,0,999.000,0.3,99.0
2022,6,7,4,0,?9?9?9?9E0?9?9?9?9*9?9?9?9?9*9?9*9*9?9*_?9?9*9?9*9,19.6,17.5,84,98090,0,1325,376,0,0,0,0,0,0,0,180,2.6,7,7,777.7,77777,9,999999999,0,0.0000,0,0,999.000,0.0,99.0
2022,6,7,5,0,?9?9?9?9E0?9?9?9?9*9?9?9?9?9*9?9*9*9?9*_?9?9*9?9*9,19.2,17.5,90,98090,0,1325,374,0,0,0,0,0,0,0,180,2.6,7,7,777.7,77777,9,999999999,0,0.0000,0,0,999.000,0.0,99.0
2022,6,7,6,0,?9?9?9?9E0?9?9?9?9*9?9?9?9?9*9?9*9*9?9*_?9?9*9?9*9,19.0,17.5,91,98090,0,1325,373,0,0,0,0,0,0,0,180,2.6,7,7,777.7,77777,9,999999999,0,0.0000,0,0,999.000,0.0,99.0
2022,6,7,7,0,?9?9?9?9E0?9?9?9?9*9?9?9?9?9*9?9*9*9?9*_?9?9*9?9*9,18.7,17.5,92,98090,39,1325,371,0,0,0,0,0,0,0,180,2.6,7,7,777.7,77777,9,999999999,0,0.0000,0,0,999.000,0.0,99.0
2022,6,7,8,0,?9?9?9?9E0?9?9?9?9*9?9?9?9?9*9?9*9*9?9*_?9?9*9?9*9,18.5,17.5,93,98090,315,1325,370,70,0,70,8398,0,7698,94,180,2.6,7,7,777.7,77777,9,999999999,0,0.0000,0,0,999.000,0.1,99.0
2022,6,7,9,0,?9?9?9?9E0?9?9?9?9*9?9?9?9?9*9?9*9*9?9*_?9?9*9?9*9,21.6,17.4,79,98090,561,1325,392,158,7,155,18932,678,17023,116,180,2.6,8,8,777.7,77777,9,999999999,0,0.0000,0,0,999.000,0.2,99.0
2022,6,7,10,0,?9?9?9?9E0?9?9?9?9*9?9?9?9?9*9?9*9*9?9*_?9?9*9?9*9,22.6,17.4,75,98090,758,1325,397,221,9,215,26464,838,23703,120,180,2.6,8,8,777.7,77777,9,999999999,0,0.0000,0,0,999.000,0.1,99.0
2022,6,7,11,0,?9?9?9?9E0?9?9?9?9*9?9?9?9?9*9?9*9*9?9*_?9?9*9?9*9,23.5,17.3,72,98090,890,1325,402,286,28,267,34278,2697,29325,126,180,2.6,8,8,777.7,77777,9,999999999,0,0.0000,0,0,999.000,0.1,99.0
2022,6,7,12,0,?9?9?9?9E0?9?9?9?9*9?9?9?9?9*9?9*9*9?9*_?9?9*9?9*9,24.7,17.3,63,98090,949,1325,402,401,103,327,48060,9751,35972,145,180,2.6,7,7,777.7,77777,9,999999999,0,0.0000,0,0,999.000,0.0,99.0
2022,6,7,13,0,?9?9?9?9E0?9?9?9?9*9?9?9?9?9*9?9*9*9?9*_?9?9*9?9*9,24.1,17.3,69,98090,931,1325,405,150,3,148,18031,251,16325,67,180,2.9,8,8,777.7,77777,9,999999999,0,0.0000,0,0,999.000,0.0,99.0
2022,6,7,14,0,?9?9?9?9E0?9?9?9?9*9?9?9?9?9*9?9*9*9?9*_?9?9*9?9*9,23.6,17.3,67,98090,836,1325,403,150,0,150,17977,0,16479,76,180,2.6,8,8,777.7,77777,9,999999999,0,0.0000,0,0,999.000,0.0,99.0
2022,6,7,15,0,?9?9?9?9E0?9?9?9?9*9?9?9?9?9*9?9*9*9?9*_?9?9*9?9*9,23.7,17.3,66,98090,672,1325,404,218,48,194,26209,4562,21347,122,180,2.6,8,8,777.7,77777,9,999999999,0,0.0000,0,0,999.000,0.0,99.0
2022,6,7,16,0,?9?9?9?9E0?9?9?9?9*9?9?9?9?9*9?9*9*9?9*_?9?9*9?9*9,23.2,17.4,68,98090,450,1325,401,111,1,111,13318,70,12180,104,180,2.6,8,8,777.7,77777,9,999999999,0,0.0000,0,0,999.000,0.0,99.0
2022,6,7,17,0,?9?9?9?9E0?9?9?9?9*9?9?9?9?9*9?9*9*9?9*_?9?9*9?9*9,22.7,17.4,70,98090,186,1325,398,78,101,64,9374,9603,7056,148,180,2.8,8,8,777.7,77777,9,999999999,0,0.0000,0,0,999.000,0.0,99.0
2022,6,7,18,0,?9?9?9?9E0?9?9?9?9*9?9?9?9?9*9?9*9*9?9*_?9?9*9?9*9,22.3,17.4,72,98090,0,1325,396,6,0,0,689,0,0,0,180,2.6,8,8,777.7,77777,9,999999999,0,0.0000,0,0,999.000,0.0,99.0
2022,6,7,19,0,?9?9?9?9E0?9?9?9?9*9?9?9?9?9*9?9*9*9?9*_?9?9*9?9*9,21.9,17.4,78,98090,0,1325,394,0,0,0,0,0,0,0,180,2.6,8,8,777.7,77777,9,999999999,0,0.0000,0,0,999.000,0.4,99.0
2022,6,7,20,0,?9?9?9?9E0?9?9?9?9*9?9?9?9?9*9?9*9*9?9*_?9?9*9?9*9,21.5,17.4,84,98090,0,1325,392,0,0,0,0,0,0,0,180,2.8,8,8,777.7,77777,9,999999999,1,0.0000,0,0,999.000,1.5,99.0
2022,6,7,21,0,?9?9?9?9E0?9?9?9?9*9?9?9?9?9*9?9*9*9?9*_?9?9*9?9*9,21.1,17.4,81,98090,0,1325,390,0,0,0,0,0,0,0,180,2.6,8,8,777.7,77777,9,999999999,0,0.0000,0,0,999.000,0.2,99.0
2022,6,7,22,0,?9?9?9?9E0?9?9?9?9*9?9?9?9?9*9?9*9*9?9*_?9?9*9?9*9,20.8,17.4,83,98090,0,1325,388,0,0,0,0,0,0,0,180,2.6,8,8,777.7,77777,9,999999999,0,0.0000,0,0,999.000,0.6,99.0
2022,6,7,23,0,?9?9?9?9E0?9?9?9?9*9?9?9?9?9*9?9*9*9?9*_?9?9*9?9*9,20.4,17.5,93,98090,0,1325,386,0,0,0,0,0,0,0,180,2.6,8,8,777.7,77777,9,999999999,18,0.0000,0,0,999.000,18.6,99.0
2022,6,7,24,0,?9?9?9?9E0?9?9?9?9*9?9?9?9?9*9?9*9*9?9*_?9?9*9?9*9,20.0,15.6,78,98090,0,1325,381,0,0,0,0,0,0,0,180,1.9,8,8,777.7,77777,9,999999999,0,0.0000,0,0,999.000,0.1,99.0
2022,6,8,1,0,?9?9?9?9E0?9?9?9?9*9?9?9?9?9*9?9*9*9?9*_?9?9*9?9*9,19.8,15.6,74,98090,0,1325,381,0,0,0,0,0,0,0,180,1.9,8,8,777.7,77777,9,999999999,0,0.0000,0,0,999.000,0.0,99.0
2022,6,8,2,0,?9?9?9?9E0?9?9?9?9*9?9?9?9?9*9?9*9*9?9*_?9?9*9?9*9,19.6,15.6,79,98090,0,1325,380,0,0,0,0,0,0,0,180,1.9,8,8,777.7,77777,9,999999999,0,0.0000,0,0,999.000,0.0,99.0
2022,6,8,3,0,?9?9?9?9E0?9?9?9?9*9?9?9?9?9*9?9*9*9?9*_?9?9*9?9*9,19.4,15.7,76,98090,0,1325,379,0,0,0,0,0,0,0,180,1.9,8,8,777.7,77777,9,999999999,0,0.0000,0,0,999.000,0.0,99.0
2022,6,8,4,0,?9?9?9?9E0?9?9?9?9*9?9?9?9?9*9?9*9*9?9*_?9?9*9?9*9,19.2,15.7,77,98090,0,1325,378,0,0,0,0,0,0,0,180,1.9,8,8,777.7,77777,9,999999999,0,0.0000,0,0,999.000,0.0,99.0
2022,6,8,5,0,?9?9?9?9E0?9?9?9?9*9?9?9?9?9*9?9*9*9?9*_?9?9*9?9*9,19.0,15.7,82,98090,0,1325,377,0,0,0,0,0,0,0,180,1.9,8,8,777.7,77777,9,999999999,0,0.0000,0,0,999.000,0.2,99.0
2022,6,8,6,0,?9?9?9?9E0?9?9?9?9*9?9?9?9?9*9?9*9*9?9*_?9?9*9?9*9,18.9,15.7,83,98090,0,1325,376,0,0,0,0,0,0,0,180,1.9,8,8,777.7,77777,9,999999999,0,0.0000,0,0,999.000,0.0,99.0
2022,6,8,7,0,?9?9?9?9E0?9?9?9?9*9?9?9?9?9*9?9*9*9?9*_?9?9*9?9*9,18.8,15.8,79,98090,37,1325,375,0,0,0,0,0,0,0,180,1.9,8,8,777.7,77777,9,999999999,0,0.0000,0,0,999.000,0.0,99.0
2022,6,8,8,0,?9?9?9?9E0?9?9?9?9*9?9?9?9?9*9?9*9*9?9*_?9?9*9?9*9,18.6,15.8,80,98090,313,1325,375,36,0,36,4319,0,3959,49,180,1.9,8,8,777.7,77777,9,999999999,0,0.0000,0,0,999.000,0.0,99.0
2022,6,8,9,0,?9?9?9?9E0?9?9?9?9*9?9?9?9?9*9?9*9*9?9*_?9?9*9?9*9,20.3,15.6,72,98090,559,1325,383,156,11,151,18674,1029,16616,114,180,1.9,8,8,777.7,77777,9,999999999,0,0.0000,0,0,999.000,0.0,99.0
2022,6,8,10,0,?9?9?9?9E0?9?9?9?9*9?9?9?9?9*9?9*9*9?9*_?9?9*9?9*9,21.3,15.4,67,98090,756,1325,388,267,27,252,32038,2518,27705,141,180,1.9,8,8,777.7,77777,9,999999999,0,0.0000,0,0,999.000,0.0,99.0
2022,6,8,11,0,?9?9?9?9E0?9?9?9?9*9?9?9?9?9*9?9*9*9?9*_?9?9*9?9*9,22.2,15.3,63,98090,888,1325,393,351,69,305,42146,6544,33557,145,180,1.9,8,8,777.7,77777,9,999999999,0,0.0000,0,0,999.000,0.0,99.0
2022,6,8,12,0,?9?9?9?9E0?9?9?9?9*9?9?9?9?9*9?9*9*9?9*_?9?9*9?9*9,22.9,15.2,61,98090,947,1325,390,401,86,339,48073,8180,37298,151,180,2.5,7,7,777.7,77777,9,999999999,0,0.0000,0,0,999.000,0.0,99.0
2022,6,8,13,0,?9?9?9?9E0?9?9?9?9*9?9?9?9?9*9?9*9*9?9*_?9?9*9?9*9,23.4,15.2,59,98090,929,1325,393,411,105,338,49346,9989,37125,153,180,4.4,7,7,777.7,77777,9,999999999,0,0.0000,0,0,999.000,0.0,99.0
2022,6,8,14,0,?9?9?9?9E0?9?9?9?9*9?9?9?9?9*9?9*9*9?9*_?9?9*9?9*9,23.7,15.1,58,98090,835,1325,401,382,131,300,45870,12453,32963,151,180,4.9,8,8,777.7,77777,9,999999999,0,0.0000,0,0,999.000,0.0,99.0
2022,6,8,15,0,?9?9?9?9E0?9?9?9?9*9?9?9?9?9*9?9*9*9?9*_?9?9*9?9*9,23.8,15.1,62,98090,672,1325,401,316,168,231,37913,15969,25390,145,180,5.7,8,8,777.7,77777,9,999999999,0,0.0000,0,0,999.000,0.0,99.0
2022,6,8,16,0,?9?9?9?9E0?9?9?9?9*9?9?9?9?9*9?9*9*9?9*_?9?9*9?9*9,23.5,15.1,59,98090,450,1325,400,218,260,130,26136,24695,14274,122,180,5.6,8,8,777.7,77777,9,999999999,0,0.0000,0,0,999.000,0.0,99.0
2022,6,8,17,0,?9?9?9?9E0?9?9?9?9*9?9?9?9?9*9?9*9*9?9*_?9?9*9?9*9,23.0,15.2,61,98090,186,1325,397,99,306,56,11827,29095,6185,130,180,3.9,8,8,777.7,77777,9,999999999,0,0.0000,0,0,999.000,0.0,99.0
2022,6,8,18,0,?9?9?9?9E0?9?9?9?9*9?9?9?9?9*9?9*9*9?9*_?9?9*9?9*9,22.6,15.3,62,98090,0,1325,395,2,0,0,229,0,0,0,180,3.5,8,8,777.7,77777,9,999999999,0,0.0000,0,0,999.000,0.0,99.0
2022,6,8,19,0,?9?9?9?9E0?9?9?9?9*9?9?9?9?9*9?9*9*9?9*_?9?9*9?9*9,22.2,15.3,63,98090,0,1325,393,0,0,0,0,0,0,0,180,2.2,8,8,777.7,77777,9,999999999,0,0.0000,0,0,999.000,0.0,99.0
2022,6,8,20,0,?9?9?9?9E0?9?9?9?9*9?9?9?9?9*9?9*9*9?9*_?9?9*9?9*9,21.9,15.4,74,98090,0,1325,391,0,0,0,0,0,0,0,180,1.9,8,8,777.7,77777,9,999999999,3,0.0000,0,0,999.000,3.7,99.0
2022,6,8,21,0,?9?9?9?9E0?9?9?9?9*9?9?9?9?9*9?9*9*9?9*_?9?9*9?9*9,21.5,15.4,66,98090,0,1325,389,0,0,0,0,0,0,0,180,1.9,8,8,777.7,77777,9,999999999,0,0.0000,0,0,999.000,0.0,99.0
2022,6,8,22,0,?9?9?9?9E0?9?9?9?9*9?9?9?9?9*9?9*9*9?9*_?9?9*9?9*9,21.1,15.4,68,98090,0,1325,387,0,0,0,0,0,0,0,180,1.9,8,8,777.7,77777,9,999999999,0,0.0000,0,0,999.000,0.0,99.0
2022,6,8,23,0,?9?9?9?9E0?9?9?9?9*9?9?9?9?9*9?9*9*9?9*_?9?9*9?9*9,20.7,15.5,70,98090,0,1325,385,0,0,0,0,0,0,0,180,1.9,8,8,777.7,77777,9,999999999,0,0.0000,0,0,999.000,0.0,99.0
2022,6,8,24,0,?9?9?9?9E0?9?9?9?9*9?9?9?9?9*9?9*9*9?9*_?9?9*9?9*9,20.4,15.4,73,98090,0,1325,383,0,0,0,0,0,0,0,180,2.6,8,8,777.7,77777,9,999999999,0,0.0000,0,0,999.000,0.0,99.0
2022,6,9,1,0,?9?9?9?9E0?9?9?9?9*9?9?9?9?9*9?9*9*9?9*_?9?9*9?9*9,20.2,15.4,74,98090,0,1325,382,0,0,0,0,0,0,0,180,2.6,8,8,777.7,77777,9,999999999,0,0.0000,0,0,999.000,0.0,99.0
2022,6,9,2,0,?9?9?9?9E0?9?9?9?9*9?9?9?9?9*9?9*9*9?9*_?9?9*9?9*9,20.0,15.5,75,98090,0,1325,381,0,0,0,0,0,0,0,180,2.8,8,8,777.7,77777,9,999999999,0,0.0000,0,0,999.000,0.0,99.0
2022,6,9,3,0,?9?9?9?9E0?9?9?9?9*9?9?9?9?9*9?9*9*9?9*_?9?9*9?9*9,19.8,15.6,81,98090,0,1325,381,0,0,0,0,0,0,0,180,2.6,8,8,777.7,77777,9,999999999,0,0.0000,0,0,999.000,0.0,99.0
2022,6,9,4,0,?9?9?9?9E0?9?9?9?9*9?9?9?9?9*9?9*9*9?9*_?9?9*9?9*9,19.6,15.6,77,98090,0,1325,380,0,0,0,0,0,0,0,180,2.6,8,8,777.7,77777,9,999999999,0,0.0000,0,0,999.000,0.0,99.0
2022,6,9,5,0,?9?9?9?9E0?9?9?9?9*9?9?9?9?9*9?9*9*9?9*_?9?9*9?9*9,19.4,15.7,78,98090,0,1325,379,0,0,0,0,0,0,0,180,2.6,8,8,777.7,77777,9,999999999,0,0.0000,0,0,999.000,0.0,99.0
2022,6,9,6,0,?9?9?9?9E0?9?9?9?9*9?9?9?9?9*9?9*9*9?9*_?9?9*9?9*9,19.3,15.7,79,98090,0,1325,378,0,0,0,0,0,0,0,180,2.6,8,8,777.7,77777,9,999999999,0,0.0000,0,0,999.000,0.0,99.0
2022,6,9,7,0,?9?9?9?9E0?9?9?9?9*9?9?9?9?9*9?9*9*9?9*_?9?9*9?9*9,19.2,15.8,80,98090,36,1325,377,0,0,0,0,0,0,0,180,2.6,8,8,777.7,77777,9,999999999,0,0.0000,0,0,999.000,0.0,99.0
2022,6,9,8,0,?9?9?9?9E0?9?9?9?9*9?9?9?9?9*9?9*9*9?9*_?9?9*9?9*9,19.1,15.8,81,98090,311,1325,377,36,0,36,4306,0,3947,49,180,2.6,8,8,777.7,77777,9,999999999,0,0.0000,0,0,999.000,0.0,99.0
2022,6,9,9,0,?9?9?9?9E0?9?9?9?9*9?9?9?9?9*9?9*9*9?9*_?9?9*9?9*9,19.8,15.6,76,98090,557,1325,381,62,0,62,7492,0,6867,47,180,2.6,8,8,777.7,77777,9,999999999,0,0.0000,0,0,999.000,0.0,99.0
2022,6,9,10,0,?9?9?9?9E0?9?9?9?9*9?9?9?9?9*9?9*9*9?9*_?9?9*9?9*9,20.6,15.3,71,98090,754,1325,384,194,7,190,23304,691,20907,106,180,2.6,8,8,777.7,77777,9,999999999,0,0.0000,0,0,999.000,0.0,99.0
2022,6,9,11,0,?9?9?9?9E0?9?9?9?9*9?9?9?9?9*9?9*9*9?9*_?9?9*9?9*9,20.7,15.3,76,98090,886,1325,385,123,0,123,14744,0,13516,58,180,2.6,8,8,777.7,77777,9,999999999,0,0.0000,0,0,999.000,0.0,99.0
2022,6,9,12,0,?9?9?9?9E0?9?9?9?9*9?9?9?9?9*9?9*9*9?9*_?9?9*9?9*9,21.0,15.2,74,98090,946,1325,386,194,5,190,23248,444,20943,85,180,2.6,8,8,777.7,77777,9,999999999,0,0.0000,0,0,999.000,0.2,99.0
2022,6,9,13,0,?9?9?9?9E0?9?9?9?9*9?9?9?9?9*9?9*9*9?9*_?9?9*9?9*9,21.5,15.0,76,98090,928,1325,388,300,19,287,35968,1784,31524,130,180,2.6,8,8,777.7,77777,9,999999999,3,0.0000,0,0,999.000,3.7,99.0
2022,6,9,14,0,?9?9?9?9E0?9?9?9?9*9?9?9?9?9*9?9*9*9?9*_?9?9*9?9*9,21.8,14.9,69,98090,834,1325,390,323,70,279,38798,6680,30697,141,180,2.6,8,8,777.7,77777,9,999999999,0,0.0000,0,0,999.000,0.1,99.0
2022,6,9,15,0,?9?9?9?9E0?9?9?9?9*9?9?9?9?9*9?9*9*9?9*_?9?9*9?9*9,22.1,14.8,63,98090,671,1325,386,333,221,221,39912,20990,24288,139,180,2.6,7,7,777.7,77777,9,999999999,0,0.0000,0,0,999.000,0.0,99.0
2022,6,9,16,0,?9?9?9?9E0?9?9?9?9*9?9?9?9?9*9?9*9*9?9*_?9?9*9?9*9,22.2,14.8,62,98090,449,1325,386,241,357,121,28967,33897,13268,113,180,2.6,7,7,777.7,77777,9,999999999,0,0.0000,0,0,999.000,0.0,99.0
2022,6,9,17,0,?9?9?9?9E0?9?9?9?9*9?9?9?9?9*9?9*9*9?9*_?9?9*9?9*9,22.0,14.9,68,98090,186,1325,391,114,365,64,13724,34650,7035,147,180,2.6,8,8,777.7,77777,9,999999999,0,0.0000,0,0,999.000,0.0,99.0
2022,6,9,18,0,?9?9?9?9E0?9?9?9?9*9?9?9?9?9*9?9*9*9?9*_?9?9*9?9*9,21.7,15.0,65,98090,0,1325,389,8,0,0,972,0,0,0,180,2.6,8,8,777.7,77777,9,999999999,0,0.0000,0,0,999.000,0.0,99.0
2022,6,9,19,0,?9?9?9?9E0?9?9?9?9*9?9?9?9?9*9?9*9*9?9*_?9?9*9?9*9,21.3,15.1,67,98090,0,1325,388,0,0,0,0,0,0,0,180,2.6,8,8,777.7,77777,9,999999999,0,0.0000,0,0,999.000,0.0,99.0
2022,6,9,20,0,?9?9?9?9E0?9?9?9?9*9?9?9?9?9*9?9*9*9?9*_?9?9*9?9*9,21.0,15.2,69,98090,0,1325,386,0,0,0,0,0,0,0,180,2.6,8,8,777.7,77777,9,999999999,0,0.0000,0,0,999.000,0.0,99.0
2022,6,9,21,0,?9?9?9?9E0?9?9?9?9*9?9?9?9?9*9?9*9*9?9*_?9?9*9?9*9,20.6,15.3,71,98090,0,1325,385,0,0,0,0,0,0,0,180,2.6,8,8,777.7,77777,9,999999999,0,0.0000,0,0,999.000,0.0,99.0
2022,6,9,22,0,?9?9?9?9E0?9?9?9?9*9?9?9?9?9*9?9*9*9?9*_?9?9*9?9*9,20.3,15.4,73,98090,0,1325,383,0,0,0,0,0,0,0,180,2.6,8,8,777.7,77777,9,999999999,0,0.0000,0,0,999.000,0.0,99.0
2022,6,9,23,0,?9?9?9?9E0?9?9?9?9*9?9?9?9?9*9?9*9*9?9*_?9?9*9?9*9,20.0,15.5,75,98090,0,1325,381,0,0,0,0,0,0,0,180,2.6,8,8,777.7,77777,9,999999999,0,0.0000,0,0,999.000,0.0,99.0
2022,6,9,24,0,?9?9?9?9E0?9?9?9?9*9?9?9?9?9*9?9*9*9?9*_?9?9*9?9*9,19.6,15.1,72,98090,0,1325,379,0,0,0,0,0,0,0,180,2.1,8,8,777.7,77777,9,999999999,0,0.0000,0,0,999.000,0.0,99.0
2022,6,10,1,0,?9?9?9?9E0?9?9?9?9*9?9?9?9?9*9?9*9*9?9*_?9?9*9?9*9,19.5,15.1,73,98090,0,1325,378,0,0,0,0,0,0,0,180,2.1,8,8,777.7,77777,9,999999999,0,0.0000,0,0,999.000,0.0,99.0
2022,6,10,2,0,?9?9?9?9E0?9?9?9?9*9?9?9?9?9*9?9*9*9?9*_?9?9*9?9*9,19.3,15.1,78,98090,0,1325,377,0,0,0,0,0,0,0,180,2.1,8,8,777.7,77777,9,999999999,0,0.0000,0,0,999.000,0.0,99.0
2022,6,10,3,0,?9?9?9?9E0?9?9?9?9*9?9?9?9?9*9?9*9*9?9*_?9?9*9?9*9,19.1,15.1,74,98090,0,1325,376,0,0,0,0,0,0,0,180,2.1,8,8,777.7,77777,9,999999999,0,0.0000,0,0,999.000,0.0,99.0
2022,6,10,4,0,?9?9?9?9E0?9?9?9?9*9?9?9?9?9*9?9*9*9?9*_?9?9*9?9*9,19.0,15.1,75,98090,0,1324,376,0,0,0,0,0,0,0,180,2.1,8,8,777.7,77777,9,999999999,0,0.0000,0,0,999.000,0.0,99.0
2022,6,10,5,0,?9?9?9?9E0?9?9?9?9*9?9?9?9?9*9?9*9*9?9*_?9?9*9?9*9,18.8,15.1,76,98090,0,1324,375,0,0,0,0,0,0,0,180,2.1,8,8,777.7,77777,9,999999999,0,0.0000,0,0,999.000,0.0,99.0
2022,6,10,6,0,?9?9?9?9E0?9?9?9?9*9?9?9?9?9*9?9*9*9?9*_?9?9*9?9*9,18.7,15.1,81,98090,0,1324,374,0,0,0,0,0,0,0,180,2.1,8,8,777.7,77777,9,999999999,0,0.0000,0,0,999.000,0.0,99.0
2022,6,10,7,0,?9?9?9?9E0?9?9?9?9*9?9?9?9?9*9?9*9*9?9*_?9?9*9?9*9,18.6,15.1,77,98090,34,1324,374,0,0,0,0,0,0,0,180,2.1,8,8,777.7,77777,9,999999999,0,0.0000,0,0,999.000,0.0,99.0
2022,6,10,8,0,?9?9?9?9E0?9?9?9?9*9?9?9?9?9*9?9*9*9?9*_?9?9*9?9*9,18.4,15.2,77,98090,309,1324,373,33,0,33,3911,0,3585,45,180,2.1,8,8,777.7,77777,9,999999999,0,0.0000,0,0,999.000,0.0,99.0
2022,6,10,9,0,?9?9?9?9E0?9?9?9?9*9?9?9?9?9*9?9*9*9?9*_?9?9*9?9*9,19.9,15.1,71,98090,555,1324,380,130,0,130,15646,0,14342,99,180,2.1,8,8,777.7,77777,9,999999999,0,0.0000,0,0,999.000,0.0,99.0
2022,6,10,10,0,?9?9?9?9E0?9?9?9?9*9?9?9?9?9*9?9*9*9?9*_?9?9*9?9*9,21.0,15.0,66,98090,752,1324,386,269,28,253,32327,2690,27866,142,180,2.1,8,8,777.7,77777,9,999999999,0,0.0000,0,0,999.000,0.0,99.0
2022,6,10,11,0,?9?9?9?9E0?9?9?9?9*9?9?9?9?9*9?9*9*9?9*_?9?9*9?9*9,21.9,14.9,63,98090,884,1324,390,322,23,307,38672,2204,33746,146,180,2.1,8,8,777.7,77777,9,999999999,0,0.0000,0,0,999.000,0.0,99.0
2022,6,10,12,0,?9?9?9?9E0?9?9?9?9*9?9?9?9?9*9?9*9*9?9*_?9?9*9?9*9,22.5,14.9,61,98090,944,1324,394,377,68,328,45182,6448,36096,147,180,3.4,8,8,777.7,77777,9,999999999,0,0.0000,0,0,999.000,0.0,99.0
2022,6,10,13,0,?9?9?9?9E0?9?9?9?9*9?9?9?9?9*9?9*9*9?9*_?9?9*9?9*9,22.9,14.9,60,98090,926,1324,396,337,63,293,40446,5952,32256,133,180,4.0,8,8,777.7,77777,9,999999999,0,0.0000,0,0,999.000,0.0,99.0
2022,6,10,14,0,?9?9?9?9E0?9?9?9?9*9?9?9?9?9*9?9*9*9?9*_?9?9*9?9*9,23.2,14.8,59,98090,833,1324,397,359,109,291,43114,10381,31963,147,180,4.9,8,8,777.7,77777,9,999999999,0,0.0000,0,0,999.000,0.0,99.0
2022,6,10,15,0,?9?9?9?9E0?9?9?9?9*9?9?9?9?9*9?9*9*9?9*_?9?9*9?9*9,23.5,14.8,58,98090,670,1324,388,385,373,197,46253,35468,21633,124,180,4.2,6,6,777.7,77777,9,999999999,0,0.0000,0,0,999.000,0.0,99.0
2022,6,10,16,0,?9?9?9?9E0?9?9?9?9*9?9?9?9?9*9?9*9*9?9*_?9?9*9?9*9,23.3,14.8,58,98090,449,1324,398,231,319,123,27718,30295,13539,116,180,3.8,8,8,777.7,77777,9,999999999,0,0.0000,0,0,999.000,0.0,99.0
2022,6,10,17,0,?9?9?9?9E0?9?9?9?9*9?9?9?9?9*9?9*9*9?9*_?9?9*9?9*9,22.7,14.9,60,98090,186,1324,395,93,308,50,11110,29236,5502,115,180,3.7,8,8,777.7,77777,9,999999999,0,0.0000,0,0,999.000,0.0,99.0
2022,6,10,18,0,?9?9?9?9E0?9?9?9?9*9?9?9?9?9*9?9*9*9?9*_?9?9*9?9*9,22.5,14.9,61,98090,0,1324,394,10,0,0,1234,0,0,0,180,2.8,8,8,777.7,77777,9,999999999,0,0.0000,0,0,999.000,0.0,99.0
2022,6,10,19,0,?9?9?9?9E0?9?9?9?9*9?9?9?9?9*9?9*9*9?9*_?9?9*9?9*9,22.1,14.9,62,98090,0,1324,392,0,0,0,0,0,0,0,180,3.1,8,8,777.7,77777,9,999999999,0,0.0000,0,0,999.000,0.0,99.0
2022,6,10,20,0,?9?9?9?9E0?9?9?9?9*9?9?9?9?9*9?9*9*9?9*_?9?9*9?9*9,21.9,14.9,63,98090,0,1324,390,0,0,0,0,0,0,0,180,2.1,8,8,777.7,77777,9,999999999,0,0.0000,0,0,999.000,0.0,99.0
2022,6,10,21,0,?9?9?9?9E0?9?9?9?9*9?9?9?9?9*9?9*9*9?9*_?9?9*9?9*9,21.6,14.9,69,98090,0,1324,389,0,0,0,0,0,0,0,180,2.1,8,8,777.7,77777,9,999999999,0,0.0000,0,0,999.000,0.0,99.0
2022,6,10,22,0,?9?9?9?9E0?9?9?9?9*9?9?9?9?9*9?9*9*9?9*_?9?9*9?9*9,21.3,15.0,65,98090,0,1324,387,0,0,0,0,0,0,0,180,2.1,8,8,777.7,77777,9,999999999,0,0.0000,0,0,999.000,0.0,99.0
2022,6,10,23,0,?9?9?9?9E0?9?9?9?9*9?9?9?9?9*9?9*9*9?9*_?9?9*9?9*9,21.0,15.0,71,98090,0,1324,386,0,0,0,0,0,0,0,180,2.1,8,8,777.7,77777,9,999999999,0,0.0000,0,0,999.000,0.9,99.0
2022,6,10,24,0,?9?9?9?9E0?9?9?9?9*9?9?9?9?9*9?9*9*9?9*_?9?9*9?9*9,20.7,17.7,85,98090,0,1324,388,0,0,0,0,0,0,0,180,2.0,8,8,777.7,77777,9,999999999,0,0.0000,0,0,999.000,0.0,99.0
2022,6,11,1,0,?9?9?9?9E0?9?9?9?9*9?9?9?9?9*9?9*9*9?9*_?9?9*9?9*9,20.5,17.8,81,98090,0,1324,387,0,0,0,0,0,0,0,180,2.0,8,8,777.7,77777,9,999999999,0,0.0000,0,0,999.000,0.0,99.0
2022,6,11,2,0,?9?9?9?9E0?9?9?9?9*9?9?9?9?9*9?9*9*9?9*_?9?9*9?9*9,20.4,17.9,83,98090,0,1324,386,0,0,0,0,0,0,0,180,2.0,8,8,777.7,77777,9,999999999,0,0.0000,0,0,999.000,0.0,99.0
2022,6,11,3,0,?9?9?9?9E0?9?9?9?9*9?9?9?9?9*9?9*9*9?9*_?9?9*9?9*9,20.2,18.0,84,98090,0,1324,386,0,0,0,0,0,0,0,180,2.1,8,8,777.7,77777,9,999999999,0,0.0000,0,0,999.000,0.0,99.0
2022,6,11,4,0,?9?9?9?9E0?9?9?9?9*9?9?9?9?9*9?9*9*9?9*_?9?9*9?9*9,20.1,18.0,85,98090,0,1324,385,0,0,0,0,0,0,0,180,2.0,8,8,777.7,77777,9,999999999,0,0.0000,0,0,999.000,0.0,99.0
2022,6,11,5,0,?9?9?9?9E0?9?9?9?9*9?9?9?9?9*9?9*9*9?9*_?9?9*9?9*9,19.9,18.1,86,98090,0,1324,384,0,0,0,0,0,0,0,180,2.4,8,8,777.7,77777,9,999999999,0,0.0000,0,0,999.000,0.0,99.0
2022,6,11,6,0,?9?9?9?9E0?9?9?9?9*9?9?9?9?9*9?9*9*9?9*_?9?9*9?9*9,19.8,18.2,87,98090,0,1324,384,0,0,0,0,0,0,0,180,2.9,8,8,777.7,77777,9,999999999,0,0.0000,0,0,999.000,0.0,99.0
2022,6,11,7,0,?9?9?9?9E0?9?9?9?9*9?9?9?9?9*9?9*9*9?9*_?9?9*9?9*9,19.7,18.2,87,98090,33,1324,383,0,0,0,0,0,0,0,180,2.9,8,8,777.7,77777,9,999999999,0,0.0000,0,0,999.000,0.0,99.0
2022,6,11,8,0,?9?9?9?9E0?9?9?9?9*9?9?9?9?9*9?9*9*9?9*_?9?9*9?9*9,19.6,18.3,88,98090,307,1324,383,14,0,14,1727,0,1583,20,180,2.7,8,8,777.7,77777,9,999999999,0,0.0000,0,0,999.000,0.0,99.0
2022,6,11,9,0,?9?9?9?9E0?9?9?9?9*9?9?9?9?9*9?9*9*9?9*_?9?9*9?9*9,20.8,17.7,80,98090,554,1324,388,60,0,60,7187,0,6588,46,180,2.8,8,8,777.7,77777,9,999999999,0,0.0000,0,0,999.000,0.0,99.0
2022,6,11,10,0,?9?9?9?9E0?9?9?9?9*9?9?9?9?9*9?9*9*9?9*_?9?9*9?9*9,21.5,17.3,75,98090,750,1324,391,105,0,105,12564,0,11517,59,180,2.6,8,8,777.7,77777,9,999999999,0,0.0000,0,0,999.000,0.0,99.0
2022,6,11,11,0,?9?9?9?9E0?9?9?9?9*9?9?9?9?9*9?9*9*9?9*_?9?9*9?9*9,21.9,17.0,72,98090,883,1324,393,120,0,120,14353,0,13157,57,180,2.0,8,8,777.7,77777,9,999999999,0,0.0000,0,0,999.000,0.0,99.0
2022,6,11,12,0,?9?9?9?9E0?9?9?9?9*9?9?9?9?9*9?9*9*9?9*_?9?9*9?9*9,22.5,16.7,68,98090,943,1324,396,176,1,175,21145,131,19275,78,180,2.7,8,8,777.7,77777,9,999999999,0,0.0000,0,0,999.000,0.0,99.0
2022,6,11,13,0,?9?9?9?9E0?9?9?9?9*9?9?9?9?9*9?9*9*9?9*_?9?9*9?9*9,23.0,16.4,70,98090,925,1324,398,190,1,189,22745,110,20760,86,180,2.3,8,8,777.7,77777,9,999999999,0,0.0000,0,0,999.000,0.1,99.0
2022,6,11,14,0,?9?9?9?9E0?9?9?9?9*9?9?9?9?9*9?9*9*9?9*_?9?9*9?9*9,23.2,16.3,69,98090,832,1324,399,158,0,158,18917,15,17330,80,180,3.2,8,8,777.7,77777,9,999999999,0,0.0000,0,0,999.000,0.0,99.0
2022,6,11,15,0,?9?9?9?9E0?9?9?9?9*9?9?9?9?9*9?9*9*9?9*_?9?9*9?9*9,23.1,16.3,65,98090,670,1324,399,106,0,106,12734,0,11673,67,180,2.6,8,8,777.7,77777,9,999999999,0,0.0000,0,0,999.000,0.0,99.0
2022,6,11,16,0,?9?9?9?9E0?9?9?9?9*9?9?9?9?9*9?9*9*9?9*_?9?9*9?9*9,23.0,16.4,70,98090,449,1324,398,92,0,92,11077,0,10154,87,180,3.1,8,8,777.7,77777,9,999999999,0,0.0000,0,0,999.000,0.1,99.0
2022,6,11,17,0,?9?9?9?9E0?9?9?9?9*9?9?9?9?9*9?9*9*9?9*_?9?9*9?9*9,22.6,16.6,72,98090,186,1324,397,42,0,42,5014,0,4596,96,180,2.7,8,8,777.7,77777,9,999999999,0,0.0000,0,0,999.000,0.0,99.0
2022,6,11,18,0,?9?9?9?9E0?9?9?9?9*9?9?9?9?9*9?9*9*9?9*_?9?9*9?9*9,22.4,16.8,74,98090,0,1324,395,1,0,0,100,0,0,0,180,2.0,8,8,777.7,77777,9,999999999,0,0.0000,0,0,999.000,0.0,99.0
2022,6,11,19,0,?9?9?9?9E0?9?9?9?9*9?9?9?9?9*9?9*9*9?9*_?9?9*9?9*9,22.1,16.9,75,98090,0,1324,394,0,0,0,0,0,0,0,180,3.2,8,8,777.7,77777,9,999999999,0,0.0000,0,0,999.000,0.2,99.0
2022,6,11,20,0,?9?9?9?9E0?9?9?9?9*9?9?9?9?9*9?9*9*9?9*_?9?9*9?9*9,21.8,17.1,77,98090,0,1324,393,0,0,0,0,0,0,0,180,3.2,8,8,777.7,77777,9,999999999,0,0.0000,0,0,999.000,0.7,99.0
2022,6,11,21,0,?9?9?9?9E0?9?9?9?9*9?9?9?9?9*9?9*9*9?9*_?9?9*9?9*9,21.5,17.2,79,98090,0,1324,392,0,0,0,0,0,0,0,180,3.5,8,8,777.7,77777,9,999999999,0,0.0000,0,0,999.000,0.4,99.0
2022,6,11,22,0,?9?9?9?9E0?9?9?9?9*9?9?9?9?9*9?9*9*9?9*_?9?9*9?9*9,21.3,17.4,81,98090,0,1324,390,0,0,0,0,0,0,0,180,2.7,8,8,777.7,77777,9,999999999,0,0.0000,0,0,999.000,0.2,99.0
2022,6,11,23,0,?9?9?9?9E0?9?9?9?9*9?9?9?9?9*9?9*9*9?9*_?9?9*9?9*9,21.0,17.5,91,98090,0,1324,389,0,0,0,0,0,0,0,180,3.1,8,8,777.7,77777,9,999999999,11,0.0000,0,0,999.000,11.2,99.0
2022,6,11,24,0,?9?9?9?9E0?9?9?9?9*9?9?9?9?9*9?9*9*9?9*_?9?9*9?9*9,20.7,18.5,83,98090,0,1324,389,0,0,0,0,0,0,0,180,5.7,8,8,777.7,77777,9,999999999,0,0.0000,0,0,999.000,0.5,99.0
2022,6,12,1,0,?9?9?9?9E0?9?9?9?9*9?9?9?9?9*9?9*9*9?9*_?9?9*9?9*9,20.6,18.5,84,98090,0,1324,388,0,0,0,0,0,0,0,180,5.8,8,8,777.7,77777,9,999999999,0,0.0000,0,0,999.000,0.3,99.0
2022,6,12,2,0,?9?9?9?9E0?9?9?9?9*9?9?9?9?9*9?9*9*9?9*_?9?9*9?9*9,20.5,18.5,84,98090,0,1324,387,0,0,0,0,0,0,0,180,6.0,8,8,777.7,77777,9,999999999,0,0.0000,0,0,999.000,0.2,99.0
2022,6,12,3,0,?9?9?9?9E0?9?9?9?9*9?9?9?9?9*9?9*9*9?9*_?9?9*9?9*9,20.3,18.5,91,98090,0,1324,387,0,0,0,0,0,0,0,180,5.2,8,8,777.7,77777,9,999999999,27,0.0000,0,0,999.000,27.6,99.0
2022,6,12,4,0,?9?9?9?9E0?9?9?9?9*9?9?9?9?9*9?9*9*9?9*_?9?9*9?9*9,20.2,18.5,89,98090,0,1324,386,0,0,0,0,0,0,0,180,6.0,8,8,777.7,77777,9,999999999,2,0.0000,0,0,999.000,2.5,99.0
2022,6,12,5,0,?9?9?9?9E0?9?9?9?9*9?9?9?9?9*9?9*9*9?9*_?9?9*9?9*9,20.1,18.5,86,98090,0,1324,385,0,0,0,0,0,0,0,180,5.1,8,8,777.7,77777,9,999999999,0,0.0000,0,0,999.000,0.7,99.0
2022,6,12,6,0,?9?9?9?9E0?9?9?9?9*9?9?9?9?9*9?9*9*9?9*_?9?9*9?9*9,20.0,18.4,89,98090,0,1324,385,0,0,0,0,0,0,0,180,4.1,8,8,777.7,77777,9,999999999,1,0.0000,0,0,999.000,1.1,99.0
2022,6,12,7,0,?9?9?9?9E0?9?9?9?9*9?9?9?9?9*9?9*9*9?9*_?9?9*9?9*9,19.9,18.4,86,98090,31,1324,384,0,0,0,0,0,0,0,180,3.2,8,8,777.7,77777,9,999999999,0,0.0000,0,0,999.000,0.3,99.0
2022,6,12,8,0,?9?9?9?9E0?9?9?9?9*9?9?9?9?9*9?9*9*9?9*_?9?9*9?9*9,19.8,18.4,90,98090,305,1324,384,13,0,13,1583,0,1451,18,180,3.8,8,8,777.7,77777,9,999999999,1,0.0000,0,0,999.000,1.6,99.0
2022,6,12,9,0,?9?9?9?9E0?9?9?9?9*9?9?9?9?9*9?9*9*9?9*_?9?9*9?9*9,21.1,18.5,82,98090,552,1324,391,60,0,60,7241,0,6637,46,180,3.2,8,8,777.7,77777,9,999999999,0,0.0000,0,0,999.000,0.1,99.0
2022,6,12,10,0,?9?9?9?9E0?9?9?9?9*9?9?9?9?9*9?9*9*9?9*_?9?9*9?9*9,21.8,18.6,80,98090,748,1324,395,96,0,96,11507,0,10548,54,180,3.2,8,8,777.7,77777,9,999999999,0,0.0000,0,0,999.000,0.0,99.0
2022,6,12,11,0,?9?9?9?9E0?9?9?9?9*9?9?9?9?9*9?9*9*9?9*_?9?9*9?9*9,22.4,18.6,78,98090,881,1324,398,117,0,117,13999,0,12833,56,180,3.8,8,8,777.7,77777,9,999999999,0,0.0000,0,0,999.000,0.0,99.0
2022,6,12,12,0,?9?9?9?9E0?9?9?9?9*9?9?9?9?9*9?9*9*9?9*_?9?9*9?9*9,23.0,18.6,73,98090,941,1324,401,151,1,151,18146,48,16595,68,180,3.5,8,8,777.7,77777,9,999999999,0,0.0000,0,0,999.000,0.0,99.0
2022,6,12,13,0,?9?9?9?9E0?9?9?9?9*9?9?9?9?9*9?9*9*9?9*_?9?9*9?9*9,23.4,18.7,75,98090,924,1324,403,159,1,158,19021,90,17363,72,180,3.2,8,8,777.7,77777,9,999999999,0,0.0000,0,0,999.000,0.0,99.0
2022,6,12,14,0,?9?9?9?9E0?9?9?9?9*9?9?9?9?9*9?9*9*9?9*_?9?9*9?9*9,23.6,18.7,74,98090,831,1324,405,145,0,145,17407,0,15957,74,180,3.2,8,8,777.7,77777,9,999999999,0,0.0000,0,0,999.000,0.1,99.0
2022,6,12,15,0,?9?9?9?9E0?9?9?9?9*9?9?9?9?9*9?9*9*9?9*_?9?9*9?9*9,23.8,18.7,74,98090,669,1324,405,130,0,130,15546,0,14251,82,180,4.9,8,8,777.7,77777,9,999999999,0,0.0000,0,0,999.000,0.2,99.0
2022,6,12,16,0,?9?9?9?9E0?9?9?9?9*9?9?9?9?9*9?9*9*9?9*_?9?9*9?9*9,23.6,18.7,74,98090,449,1324,405,86,0,86,10348,0,9485,81,180,5.2,8,8,777.7,77777,9,999999999,0,0.0000,0,0,999.000,0.1,99.0
2022,6,12,17,0,?9?9?9?9E0?9?9?9?9*9?9?9?9?9*9?9*9*9?9*_?9?9*9?9*9,23.2,18.7,76,98090,186,1324,402,39,0,39,4686,0,4296,90,180,5.6,8,8,777.7,77777,9,999999999,0,0.0000,0,0,999.000,0.9,99.0
2022,6,12,18,0,?9?9?9?9E0?9?9?9?9*9?9?9?9?9*9?9*9*9?9*_?9?9*9?9*9,22.8,18.6,77,98090,0,1324,400,1,0,0,94,0,0,0,180,5.5,8,8,777.7,77777,9,999999999,0,0.0000,0,0,999.000,0.4,99.0
2022,6,12,19,0,?9?9?9?9E0?9?9?9?9*9?9?9?9?9*9?9*9*9?9*_?9?9*9?9*9,22.3,18.6,78,98090,0,1324,398,0,0,0,0,0,0,0,180,5.2,8,8,777.7,77777,9,999999999,0,0.0000,0,0,999.000,0.1,99.0
2022,6,12,20,0,?9?9?9?9E0?9?9?9?9*9?9?9?9?9*9?9*9*9?9*_?9?9*9?9*9,21.9,18.6,76,98090,0,1324,395,0,0,0,0,0,0,0,180,5.5,8,8,777.7,77777,9,999999999,0,0.0000,0,0,999.000,0.0,99.0
2022,6,12,21,0,?9?9?9?9E0?9?9?9?9*9?9?9?9?9*9?9*9*9?9*_?9?9*9?9*9,21.5,18.5,81,98090,0,1324,393,0,0,0,0,0,0,0,180,5.5,8,8,777.7,77777,9,999999999,0,0.0000,0,0,999.000,0.2,99.0
2022,6,12,22,0,?9?9?9?9E0?9?9?9?9*9?9?9?9?9*9?9*9*9?9*_?9?9*9?9*9,21.1,18.5,82,98090,0,1324,391,0,0,0,0,0,0,0,180,5.1,8,8,777.7,77777,9,999999999,0,0.0000,0,0,999.000,0.0,99.0
2022,6,12,23,0,?9?9?9?9E0?9?9?9?9*9?9?9?9?9*9?9*9*9?9*_?9?9*9?9*9,20.6,18.5,80,98090,0,1324,388,0,0,0,0,0,0,0,180,3.7,8,8,777.7,77777,9,999999999,0,0.0000,0,0,999.000,0.0,99.0
2022,6,12,24,0,?9?9?9?9E0?9?9?9?9*9?9?9?9?9*9?9*9*9?9*_?9?9*9?9*9,20.2,15.7,75,98090,0,1324,383,0,0,0,0,0,0,0,180,1.1,8,8,777.7,77777,9,999999999,0,0.0000,0,0,999.000,0.0,99.0
2022,6,13,1,0,?9?9?9?9E0?9?9?9?9*9?9?9?9?9*9?9*9*9?9*_?9?9*9?9*9,20.0,15.6,76,98090,0,1324,382,0,0,0,0,0,0,0,180,1.1,8,8,777.7,77777,9,999999999,0,0.0000,0,0,999.000,0.0,99.0
2022,6,13,2,0,?9?9?9?9E0?9?9?9?9*9?9?9?9?9*9?9*9*9?9*_?9?9*9?9*9,19.8,15.6,76,98090,0,1324,380,0,0,0,0,0,0,0,180,1.1,8,8,777.7,77777,9,999999999,0,0.0000,0,0,999.000,0.0,99.0
2022,6,13,3,0,?9?9?9?9E0?9?9?9?9*9?9?9?9?9*9?9*9*9?9*_?9?9*9?9*9,19.6,15.5,77,98090,0,1324,379,0,0,0,0,0,0,0,180,1.1,8,8,777.7,77777,9,999999999,0,0.0000,0,0,999.000,0.0,99.0
2022,6,13,4,0,?9?9?9?9E0?9?9?9?9*9?9?9?9?9*9?9*9*9?9*_?9?9*9?9*9,19.4,15.4,78,98090,0,1323,378,0,0,0,0,0,0,0,180,1.1,8,8,777.7,77777,9,999999999,0,0.0000,0,0,999.000,0.0,99.0
2022,6,13,5,0,?9?9?9?9E0?9?9?9?9*9?9?9?9?9*9?9*9*9?9*_?9?9*9?9*9,19.1,15.4,78,98090,0,1323,377,0,0,0,0,0,0,0,180,1.1,8,8,777.7,77777,9,999999999,0,0.0000,0,0,999.000,0.0,99.0
2022,6,13,6,0,?9?9?9?9E0?9?9?9?9*9?9?9?9?9*9?9*9*9?9*_?9?9*9?9*9,19.0,15.3,79,98090,0,1323,376,0,0,0,0,0,0,0,180,1.1,8,8,777.7,77777,9,999999999,0,0.0000,0,0,999.000,0.0,99.0
2022,6,13,7,0,?9?9?9?9E0?9?9?9?9*9?9?9?9?9*9?9*9*9?9*_?9?9*9?9*9,18.8,15.3,79,98090,30,1323,375,0,0,0,0,0,0,0,180,1.1,8,8,777.7,77777,9,999999999,0,0.0000,0,0,999.000,0.0,99.0
2022,6,13,8,0,?9?9?9?9E0?9?9?9?9*9?9?9?9?9*9?9*9*9?9*_?9?9*9?9*9,18.7,15.2,80,98090,304,1323,374,54,0,54,6420,0,5885,75,180,1.7,8,8,777.7,77777,9,999999999,0,0.0000,0,0,999.000,0.0,99.0
2022,6,13,9,0,?9?9?9?9E0?9?9?9?9*9?9?9?9?9*9?9*9*9?9*_?9?9*9?9*9,21.3,16.0,71,98090,550,1323,372,248,169,178,29705,16027,19525,136,180,2.2,4,4,777.7,77777,9,999999999,0,0.0000,0,0,999.000,0.0,99.0
2022,6,13,10,0,?9?9?9?9E0?9?9?9?9*9?9?9?9?9*9?9*9*9?9*_?9?9*9?9*9,22.9,16.5,67,98090,747,1323,378,415,309,240,49741,29353,26429,136,180,2.7,3,3,777.7,77777,9,999999999,0,0.0000,0,0,999.000,0.0,99.0
2022,6,13,11,0,?9?9?9?9E0?9?9?9?9*9?9?9?9?9*9?9*9*9?9*_?9?9*9?9*9,24.3,16.9,63,98090,880,1323,377,561,550,196,67358,52259,21534,94,180,3.7,1,1,777.7,77777,9,999999999,0,0.0000,0,0,999.000,0.0,99.0
2022,6,13,12,0,?9?9?9?9E0?9?9?9?9*9?9?9?9?9*9?9*9*9?9*_?9?9*9?9*9,25.4,17.2,60,98090,940,1323,383,634,652,171,76135,61949,18857,77,180,4.3,1,1,777.7,77777,9,999999999,0,0.0000,0,0,999.000,0.0,99.0
2022,6,13,13,0,?9?9?9?9E0?9?9?9?9*9?9?9?9?9*9?9*9*9?9*_?9?9*9?9*9,26.1,17.4,58,98090,923,1323,392,635,701,146,76177,66557,16080,67,180,4.9,2,2,777.7,77777,9,999999999,0,0.0000,0,0,999.000,0.0,99.0
2022,6,13,14,0,?9?9?9?9E0?9?9?9?9*9?9?9?9?9*9?9*9*9?9*_?9?9*9?9*9,26.6,17.5,57,98090,831,1323,394,594,786,101,71258,74683,11056,51,180,5.3,2,2,777.7,77777,9,999999999,0,0.0000,0,0,999.000,0.0,99.0
2022,6,13,15,0,?9?9?9?9E0?9?9?9?9*9?9?9?9?9*9?9*9*9?9*_?9?9*9?9*9,26.7,17.5,57,98090,669,1323,399,482,746,106,57899,70831,11651,67,180,5.9,3,3,777.7,77777,9,999999999,0,0.0000,0,0,999.000,0.0,99.0
2022,6,13,16,0,?9?9?9?9E0?9?9?9?9*9?9?9?9?9*9?9*9*9?9*_?9?9*9?9*9,26.3,17.5,58,98090,449,1323,397,351,481,188,42128,45733,20697,177,180,5.5,3,3,777.7,77777,9,999999999,0,0.0000,0,0,999.000,0.0,99.0
2022,6,13,17,0,?9?9?9?9E0?9?9?9?9*9?9?9?9?9*9?9*9*9?9*_?9?9*9?9*9,25.5,17.2,60,98090,186,1323,402,159,395,104,19039,37498,11420,238,180,5.2,6,6,777.7,77777,9,999999999,0,0.0000,0,0,999.000,0.0,99.0
2022,6,13,18,0,?9?9?9?9E0?9?9?9?9*9?9?9?9?9*9?9*9*9?9*_?9?9*9?9*9,24.8,17.0,62,98090,0,1323,398,3,0,0,391,0,0,0,180,4.1,6,6,777.7,77777,9,999999999,0,0.0000,0,0,999.000,0.0,99.0
2022,6,13,19,0,?9?9?9?9E0?9?9?9?9*9?9?9?9?9*9?9*9*9?9*_?9?9*9?9*9,24.1,16.8,63,98090,0,1323,394,0,0,0,0,0,0,0,180,3.1,6,6,777.7,77777,9,999999999,0,0.0000,0,0,999.000,0.0,99.0
2022,6,13,20,0,?9?9?9?9E0?9?9?9?9*9?9?9?9?9*9?9*9*9?9*_?9?9*9?9*9,23.5,16.6,65,98090,0,1323,390,0,0,0,0,0,0,0,180,2.3,6,6,777.7,77777,9,999999999,0,0.0000,0,0,999.000,0.0,99.0
2022,6,13,21,0,?9?9?9?9E0?9?9?9?9*9?9?9?9?9*9?9*9*9?9*_?9?9*9?9*9,22.8,16.5,67,98090,0,1323,391,0,0,0,0,0,0,0,180,1.1,7,7,777.7,77777,9,999999999,0,0.0000,0,0,999.000,0.0,99.0
2022,6,13,22,0,?9?9?9?9E0?9?9?9?9*9?9?9?9?9*9?9*9*9?9*_?9?9*9?9*9,22.1,16.3,69,98090,0,1323,387,0,0,0,0,0,0,0,180,1.1,7,7,777.7,77777,9,999999999,0,0.0000,0,0,999.000,0.0,99.0
2022,6,13,23,0,?9?9?9?9E0?9?9?9?9*9?9?9?9?9*9?9*9*9?9*_?9?9*9?9*9,21.4,16.1,71,98090,0,1323,383,0,0,0,0,0,0,0,180,1.1,7,7,777.7,77777,9,999999999,0,0.0000,0,0,999.000,0.0,99.0
2022,6,13,24,0,?9?9?9?9E0?9?9?9?9*9?9?9?9?9*9?9*9*9?9*_?9?9*9?9*9,20.8,14.2,66,98090,0,1323,378,0,0,0,0,0,0,0,180,1.9,7,7,777.7,77777,9,999999999,0,0.0000,0,0,999.000,0.0,99.0
2022,6,14,1,0,?9?9?9?9E0?9?9?9?9*9?9?9?9?9*9?9*9*9?9*_?9?9*9?9*9,20.4,14.2,67,98090,0,1323,376,0,0,0,0,0,0,0,180,1.9,7,7,777.7,77777,9,999999999,0,0.0000,0,0,999.000,0.0,99.0
2022,6,14,2,0,?9?9?9?9E0?9?9?9?9*9?9?9?9?9*9?9*9*9?9*_?9?9*9?9*9,20.1,14.2,68,98090,0,1323,374,0,0,0,0,0,0,0,180,1.9,7,7,777.7,77777,9,999999999,0,0.0000,0,0,999.000,0.0,99.0
2022,6,14,3,0,?9?9?9?9E0?9?9?9?9*9?9?9?9?9*9?9*9*9?9*_?9?9*9?9*9,19.8,14.2,70,98090,0,1323,373,0,0,0,0,0,0,0,180,1.9,7,7,777.7,77777,9,999999999,0,0.0000,0,0,999.000,0.0,99.0
2022,6,14,4,0,?9?9?9?9E0?9?9?9?9*9?9?9?9?9*9?9*9*9?9*_?9?9*9?9*9,19.4,14.2,71,98090,0,1323,371,0,0,0,0,0,0,0,180,1.9,7,7,777.7,77777,9,999999999,0,0.0000,0,0,999.000,0.0,99.0
2022,6,14,5,0,?9?9?9?9E0?9?9?9?9*9?9?9?9?9*9?9*9*9?9*_?9?9*9?9*9,19.1,14.2,73,98090,0,1323,375,0,0,0,0,0,0,0,180,1.9,8,8,777.7,77777,9,999999999,0,0.0000,0,0,999.000,0.0,99.0
2022,6,14,6,0,?9?9?9?9E0?9?9?9?9*9?9?9?9?9*9?9*9*9?9*_?9?9*9?9*9,18.8,14.2,74,98090,0,1323,374,0,0,0,0,0,0,0,180,1.9,8,8,777.7,77777,9,999999999,0,0.0000,0,0,999.000,0.0,99.0
2022,6,14,7,0,?9?9?9?9E0?9?9?9?9*9?9?9?9?9*9?9*9*9?9*_?9?9*9?9*9,18.6,14.2,75,98090,28,1323,373,0,0,0,0,0,0,0,180,1.9,8,8,777.7,77777,9,999999999,0,0.0000,0,0,999.000,0.0,99.0
2022,6,14,8,0,?9?9?9?9E0?9?9?9?9*9?9?9?9?9*9?9*9*9?9*_?9?9*9?9*9,18.4,14.1,76,98090,302,1323,371,50,0,50,5970,0,5473,70,180,1.9,8,8,777.7,77777,9,999999999,0,0.0000,0,0,999.000,0.0,99.0
2022,6,14,9,0,?9?9?9?9E0?9?9?9?9*9?9?9?9?9*9?9*9*9?9*_?9?9*9?9*9,20.7,14.2,66,98090,549,1323,370,237,145,177,28465,13756,19499,136,180,1.9,5,5,777.7,77777,9,999999999,0,0.0000,0,0,999.000,0.0,99.0
2022,6,14,10,0,?9?9?9?9E0?9?9?9?9*9?9?9?9?9*9?9*9*9?9*_?9?9*9?9*9,22.1,14.2,60,98090,745,1323,371,421,330,236,50560,31338,25920,133,180,2.1,3,3,777.7,77777,9,999999999,0,0.0000,0,0,999.000,0.0,99.0
2022,6,14,11,0,?9?9?9?9E0?9?9?9?9*9?9?9?9?9*9?9*9*9?9*_?9?9*9?9*9,23.4,14.3,56,98090,878,1323,374,552,470,240,66254,44639,26431,115,180,2.7,2,2,777.7,77777,9,999999999,0,0.0000,0,0,999.000,0.0,99.0
2022,6,14,12,0,?9?9?9?9E0?9?9?9?9*9?9?9?9?9*9?9*9*9?9*_?9?9*9?9*9,24.5,14.3,53,98090,939,1323,367,651,651,190,78174,61801,20897,85,180,3.2,0,0,777.7,77777,9,999999999,0,0.0000,0,0,999.000,0.0,99.0
2022,6,14,13,0,?9?9?9?9E0?9?9?9?9*9?9?9?9?9*9?9*9*9?9*_?9?9*9?9*9,25.2,14.3,50,98090,922,1323,371,677,789,128,81275,74930,14033,58,180,3.9,0,0,777.7,77777,9,999999999,0,0.0000,0,0,999.000,0.0,99.0
2022,6,14,14,0,?9?9?9?9E0?9?9?9?9*9?9?9?9?9*9?9*9*9?9*_?9?9*9?9*9,25.7,14.3,49,98090,830,1323,374,634,749,164,76051,71143,18043,83,180,4.8,0,0,777.7,77777,9,999999999,0,0.0000,0,0,999.000,0.0,99.0
2022,6,14,15,0,?9?9?9?9E0?9?9?9?9*9?9?9?9?9*9?9*9*9?9*_?9?9*9?9*9,25.9,14.3,48,98090,669,1323,374,536,670,197,64266,63628,21703,124,180,5.4,0,0,777.7,77777,9,999999999,0,0.0000,0,0,999.000,0.0,99.0
2022,6,14,16,0,?9?9?9?9E0?9?9?9?9*9?9?9?9?9*9?9*9*9?9*_?9?9*9?9*9,25.5,14.3,49,98090,449,1323,385,365,683,134,43812,64868,14730,126,180,5.2,2,2,777.7,77777,9,999999999,0,0.0000,0,0,999.000,0.0,99.0
2022,6,14,17,0,?9?9?9?9E0?9?9?9?9*9?9?9?9?9*9?9*9*9?9*_?9?9*9?9*9,24.8,14.3,52,98090,187,1323,391,168,409,111,20208,38832,12261,255,180,4.1,5,5,777.7,77777,9,999999999,0,0.0000,0,0,999.000,0.0,99.0
2022,6,14,18,0,?9?9?9?9E0?9?9?9?9*9?9?9?9?9*9?9*9*9?9*_?9?9*9?9*9,24.1,14.3,54,98090,0,1323,387,5,0,0,566,0,0,0,180,2.7,5,5,777.7,77777,9,999999999,0,0.0000,0,0,999.000,0.0,99.0
2022,6,14,19,0,?9?9?9?9E0?9?9?9?9*9?9?9?9?9*9?9*9*9?9*_?9?9*9?9*9,23.5,14.3,56,98090,0,1323,384,0,0,0,0,0,0,0,180,1.9,5,5,777.7,77777,9,999999999,0,0.0000,0,0,999.000,0.0,99.0
2022,6,14,20,0,?9?9?9?9E0?9?9?9?9*9?9?9?9?9*9?9*9*9?9*_?9?9*9?9*9,22.8,14.3,58,98090,0,1323,384,0,0,0,0,0,0,0,180,1.9,6,6,777.7,77777,9,999999999,0,0.0000,0,0,999.000,0.0,99.0
2022,6,14,21,0,?9?9?9?9E0?9?9?9?9*9?9?9?9?9*9?9*9*9?9*_?9?9*9?9*9,22.2,14.2,60,98090,0,1323,381,0,0,0,0,0,0,0,180,1.9,6,6,777.7,77777,9,999999999,0,0.0000,0,0,999.000,0.0,99.0
2022,6,14,22,0,?9?9?9?9E0?9?9?9?9*9?9?9?9?9*9?9*9*9?9*_?9?9*9?9*9,21.5,14.2,63,98090,0,1323,377,0,0,0,0,0,0,0,180,1.9,6,6,777.7,77777,9,999999999,0,0.0000,0,0,999.000,0.0,99.0
2022,6,14,23,0,?9?9?9?9E0?9?9?9?9*9?9?9?9?9*9?9*9*9?9*_?9?9*9?9*9,20.9,14.2,65,98090,0,1323,374,0,0,0,0,0,0,0,180,1.9,6,6,777.7,77777,9,999999999,0,0.0000,0,0,999.000,0.0,99.0
2022,6,14,24,0,?9?9?9?9E0?9?9?9?9*9?9?9?9?9*9?9*9*9?9*_?9?9*9?9*9,20.2,15.1,72,98090,0,1323,372,0,0,0,0,0,0,0,180,2.2,6,6,777.7,77777,9,999999999,0,0.0000,0,0,999.000,0.0,99.0
2022,6,15,1,0,?9?9?9?9E0?9?9?9?9*9?9?9?9?9*9?9*9*9?9*_?9?9*9?9*9,19.9,15.0,73,98090,0,1323,374,0,0,0,0,0,0,0,180,2.2,7,7,777.7,77777,9,999999999,0,0.0000,0,0,999.000,0.0,99.0
2022,6,15,2,0,?9?9?9?9E0?9?9?9?9*9?9?9?9?9*9?9*9*9?9*_?9?9*9?9*9,19.6,15.0,74,98090,0,1323,373,0,0,0,0,0,0,0,180,2.2,7,7,777.7,77777,9,999999999,0,0.0000,0,0,999.000,0.0,99.0
2022,6,15,3,0,?9?9?9?9E0?9?9?9?9*9?9?9?9?9*9?9*9*9?9*_?9?9*9?9*9,19.2,14.9,75,98090,0,1323,371,0,0,0,0,0,0,0,180,2.2,7,7,777.7,77777,9,999999999,0,0.0000,0,0,999.000,0.0,99.0
2022,6,15,4,0,?9?9?9?9E0?9?9?9?9*9?9?9?9?9*9?9*9*9?9*_?9?9*9?9*9,18.9,14.9,77,98090,0,1323,369,0,0,0,0,0,0,0,180,2.2,7,7,777.7,77777,9,999999999,0,0.0000,0,0,999.000,0.0,99.0
2022,6,15,5,0,?9?9?9?9E0?9?9?9?9*9?9?9?9?9*9?9*9*9?9*_?9?9*9?9*9,18.6,14.8,78,98090,0,1323,368,0,0,0,0,0,0,0,180,2.2,7,7,777.7,77777,9,999999999,0,0.0000,0,0,999.000,0.0,99.0
2022,6,15,6,0,?9?9?9?9E0?9?9?9?9*9?9?9?9?9*9?9*9*9?9*_?9?9*9?9*9,18.4,14.8,79,98090,0,1323,372,0,0,0,0,0,0,0,180,2.2,8,8,777.7,77777,9,999999999,0,0.0000,0,0,999.000,0.0,99.0
2022,6,15,7,0,?9?9?9?9E0?9?9?9?9*9?9?9?9?9*9?9*9*9?9*_?9?9*9?9*9,18.1,14.7,80,98090,27,1323,371,0,0,0,0,0,0,0,180,2.2,8,8,777.7,77777,9,999999999,0,0.0000,0,0,999.000,0.0,99.0
2022,6,15,8,0,?9?9?9?9E0?9?9?9?9*9?9?9?9?9*9?9*9*9?9*_?9?9*9?9*9,17.9,14.7,81,98090,301,1323,370,50,0,50,5990,0,5491,70,180,2.2,8,8,777.7,77777,9,999999999,0,0.0000,0,0,999.000,0.0,99.0
2022,6,15,9,0,?9?9?9?9E0?9?9?9?9*9?9?9?9?9*9?9*9*9?9*_?9?9*9?9*9,20.3,15.1,71,98090,547,1323,369,243,162,176,29207,15394,19412,136,180,2.2,5,5,777.7,77777,9,999999999,0,0.0000,0,0,999.000,0.0,99.0
2022,6,15,10,0,?9?9?9?9E0?9?9?9?9*9?9?9?9?9*9?9*9*9?9*_?9?9*9?9*9,21.8,15.3,66,98090,744,1323,367,428,350,231,51316,33246,25406,131,180,2.2,2,2,777.7,77777,9,999999999,0,0.0000,0,0,999.000,0.0,99.0
2022,6,15,11,0,?9?9?9?9E0?9?9?9?9*9?9?9?9?9*9?9*9*9?9*_?9?9*9?9*9,23.1,15.5,62,98090,877,1323,374,550,464,242,65959,44126,26595,116,180,2.2,2,2,777.7,77777,9,999999999,0,0.0000,0,0,999.000,0.0,99.0
2022,6,15,12,0,?9?9?9?9E0?9?9?9?9*9?9?9?9?9*9?9*9*9?9*_?9?9*9?9*9,24.1,15.6,58,98090,938,1323,367,649,645,192,77884,61269,21111,86,180,2.3,0,0,777.7,77777,9,999999999,0,0.0000,0,0,999.000,0.0,99.0
2022,6,15,13,0,?9?9?9?9E0?9?9?9?9*9?9?9?9?9*9?9*9*9?9*_?9?9*9?9*9,24.9,15.7,56,98090,922,1323,371,657,735,145,78876,69839,15975,66,180,3.5,0,0,777.7,77777,9,999999999,0,0.0000,0,0,999.000,0.0,99.0
2022,6,15,14,0,?9?9?9?9E0?9?9?9?9*9?9?9?9?9*9?9*9*9?9*_?9?9*9?9*9,25.3,15.8,55,98090,830,1323,380,608,830,88,72998,78822,9683,45,180,4.7,1,1,777.7,77777,9,999999999,0,0.0000,0,0,999.000,0.0,99.0
2022,6,15,15,0,?9?9?9?9E0?9?9?9?9*9?9?9?9?9*9?9*9*9?9*_?9?9*9?9*9,25.4,15.8,55,98090,669,1323,390,490,717,128,58830,68080,14113,81,180,4.6,3,3,777.7,77777,9,999999999,0,0.0000,0,0,999.000,0.0,99.0
2022,6,15,16,0,?9?9?9?9E0?9?9?9?9*9?9?9?9?9*9?9*9*9?9*_?9?9*9?9*9,25.0,15.7,56,98090,449,1323,391,342,660,118,40993,62678,12987,111,180,5.3,4,4,777.7,77777,9,999999999,0,0.0000,0,0,999.000,0.0,99.0
2022,6,15,17,0,?9?9?9?9E0?9?9?9?9*9?9?9?9?9*9?9*9*9?9*_?9?9*9?9*9,24.2,15.6,58,98090,187,1323,393,153,398,97,18335,37790,10695,222,180,3.9,6,6,777.7,77777,9,999999999,0,0.0000,0,0,999.000,0.0,99.0
2022,6,15,18,0,?9?9?9?9E0?9?9?9?9*9?9?9?9?9*9?9*9*9?9*_?9?9*9?9*9,23.6,15.5,60,98090,0,1323,390,3,0,0,347,0,0,0,180,2.2,6,6,777.7,77777,9,999999999,0,0.0000,0,0,999.000,0.0,99.0
2022,6,15,19,0,?9?9?9?9E0?9?9?9?9*9?9?9?9?9*9?9*9*9?9*_?9?9*9?9*9,23.0,15.5,62,98090,0,1323,387,0,0,0,0,0,0,0,180,2.2,6,6,777.7,77777,9,999999999,0,0.0000,0,0,999.000,0.0,99.0
2022,6,15,20,0,?9?9?9?9E0?9?9?9?9*9?9?9?9?9*9?9*9*9?9*_?9?9*9?9*9,22.5,15.4,64,98090,0,1323,384,0,0,0,0,0,0,0,180,2.2,6,6,777.7,77777,9,999999999,0,0.0000,0,0,999.000,0.0,99.0
2022,6,15,21,0,?9?9?9?9E0?9?9?9?9*9?9?9?9?9*9?9*9*9?9*_?9?9*9?9*9,21.9,15.3,66,98090,0,1323,385,0,0,0,0,0,0,0,180,2.2,7,7,777.7,77777,9,999999999,0,0.0000,0,0,999.000,0.0,99.0
2022,6,15,22,0,?9?9?9?9E0?9?9?9?9*9?9?9?9?9*9?9*9*9?9*_?9?9*9?9*9,21.3,15.2,68,98090,0,1323,382,0,0,0,0,0,0,0,180,2.2,7,7,777.7,77777,9,999999999,0,0.0000,0,0,999.000,0.0,99.0
2022,6,15,23,0,?9?9?9?9E0?9?9?9?9*9?9?9?9?9*9?9*9*9?9*_?9?9*9?9*9,20.8,15.1,70,98090,0,1323,379,0,0,0,0,0,0,0,180,2.2,7,7,777.7,77777,9,999999999,0,0.0000,0,0,999.000,0.0,99.0
2022,6,15,24,0,?9?9?9?9E0?9?9?9?9*9?9?9?9?9*9?9*9*9?9*_?9?9*9?9*9,20.2,16.5,79,98090,0,1323,377,0,0,0,0,0,0,0,180,2.0,7,7,777.7,77777,9,999999999,0,0.0000,0,0,999.000,0.0,99.0
2022,6,16,1,0,?9?9?9?9E0?9?9?9?9*9?9?9?9?9*9?9*9*9?9*_?9?9*9?9*9,19.9,16.4,80,98090,0,1323,376,0,0,0,0,0,0,0,180,2.0,7,7,777.7,77777,9,999999999,0,0.0000,0,0,999.000,0.0,99.0
2022,6,16,2,0,?9?9?9?9E0?9?9?9?9*9?9?9?9?9*9?9*9*9?9*_?9?9*9?9*9,19.6,16.3,81,98090,0,1323,374,0,0,0,0,0,0,0,180,2.0,7,7,777.7,77777,9,999999999,0,0.0000,0,0,999.000,0.0,99.0
2022,6,16,3,0,?9?9?9?9E0?9?9?9?9*9?9?9?9?9*9?9*9*9?9*_?9?9*9?9*9,19.3,16.3,82,98090,0,1323,373,0,0,0,0,0,0,0,180,2.0,7,7,777.7,77777,9,999999999,0,0.0000,0,0,999.000,0.0,99.0
2022,6,16,4,0,?9?9?9?9E0?9?9?9?9*9?9?9?9?9*9?9*9*9?9*_?9?9*9?9*9,19.0,16.2,83,98090,0,1323,371,0,0,0,0,0,0,0,180,2.0,7,7,777.7,77777,9,999999999,0,0.0000,0,0,999.000,0.0,99.0
2022,6,16,5,0,?9?9?9?9E0?9?9?9?9*9?9?9?9?9*9?9*9*9?9*_?9?9*9?9*9,18.7,16.1,84,98090,0,1323,376,0,0,0,0,0,0,0,180,2.0,8,8,777.7,77777,9,999999999,0,0.0000,0,0,999.000,0.0,99.0
2022,6,16,6,0,?9?9?9?9E0?9?9?9?9*9?9?9?9?9*9?9*9*9?9*_?9?9*9?9*9,18.5,16.1,85,98090,0,1323,374,0,0,0,0,0,0,0,180,2.0,8,8,777.7,77777,9,999999999,0,0.0000,0,0,999.000,0.0,99.0
2022,6,16,7,0,?9?9?9?9E0?9?9?9?9*9?9?9?9?9*9?9*9*9?9*_?9?9*9?9*9,18.3,16.0,86,98090,26,1323,373,0,0,0,0,0,0,0,180,2.0,8,8,777.7,77777,9,999999999,0,0.0000,0,0,999.000,0.0,99.0
2022,6,16,8,0,?9?9?9?9E0?9?9?9?9*9?9?9?9?9*9?9*9*9?9*_?9?9*9?9*9,18.1,16.0,87,98090,299,1323,372,43,0,43,5160,0,4730,61,180,2.0,8,8,777.7,77777,9,999999999,0,0.0000,0,0,999.000,0.0,99.0
2022,6,16,9,0,?9?9?9?9E0?9?9?9?9*9?9?9?9?9*9?9*9*9?9*_?9?9*9?9*9,19.7,16.4,81,98090,546,1323,381,141,5,139,16968,505,15313,108,180,2.0,8,8,777.7,77777,9,999999999,0,0.0000,0,0,999.000,0.0,99.0
2022,6,16,10,0,?9?9?9?9E0?9?9?9?9*9?9?9?9?9*9?9*9*9?9*_?9?9*9?9*9,21.4,16.7,74,98090,743,1323,373,398,241,263,47804,22922,28929,149,180,2.0,4,4,777.7,77777,9,999999999,0,0.0000,0,0,999.000,0.0,99.0
2022,6,16,11,0,?9?9?9?9E0?9?9?9?9*9?9?9?9?9*9?9*9*9?9*_?9?9*9?9*9,22.8,17.1,70,98090,876,1323,378,532,445,237,63829,42252,26116,114,180,2.0,3,3,777.7,77777,9,999999999,0,0.0000,0,0,999.000,0.0,99.0
2022,6,16,12,0,?9?9?9?9E0?9?9?9?9*9?9?9?9?9*9?9*9*9?9*_?9?9*9?9*9,23.6,17.3,67,98090,937,1323,389,543,358,289,65108,34023,31782,130,180,2.2,5,5,777.7,77777,9,999999999,0,0.0000,0,0,999.000,0.0,99.0
2022,6,16,13,0,?9?9?9?9E0?9?9?9?9*9?9?9?9?9*9?9*9*9?9*_?9?9*9?9*9,24.1,17.4,66,98090,921,1323,394,493,252,317,59105,23971,34855,145,180,3.3,6,6,777.7,77777,9,999999999,0,0.0000,0,0,999.000,0.0,99.0
2022,6,16,14,0,?9?9?9?9E0?9?9?9?9*9?9?9?9?9*9?9*9*9?9*_?9?9*9?9*9,24.5,17.4,64,98090,830,1323,393,526,554,179,63072,52588,19638,91,180,4.1,5,5,777.7,77777,9,999999999,0,0.0000,0,0,999.000,0.0,99.0
2022,6,16,15,0,?9?9?9?9E0?9?9?9?9*9?9?9?9?9*9?9*9*9?9*_?9?9*9?9*9,24.5,17.5,64,98090,669,1323,394,422,575,132,50644,54603,14483,83,180,4.7,5,5,777.7,77777,9,999999999,0,0.0000,0,0,999.000,0.0,99.0
2022,6,16,16,0,?9?9?9?9E0?9?9?9?9*9?9?9?9?9*9?9*9*9?9*_?9?9*9?9*9,24.3,17.4,65,98090,450,1323,392,307,458,152,36852,43526,16689,142,180,4.8,5,5,777.7,77777,9,999999999,0,0.0000,0,0,999.000,0.0,99.0
2022,6,16,17,0,?9?9?9?9E0?9?9?9?9*9?9?9?9?9*9?9*9*9?9*_?9?9*9?9*9,23.5,17.2,67,98090,188,1323,402,114,367,62,13627,34849,6837,141,180,5.2,8,8,777.7,77777,9,999999999,0,0.0000,0,0,999.000,0.0,99.0
2022,6,16,18,0,?9?9?9?9E0?9?9?9?9*9?9?9?9?9*9?9*9*9?9*_?9?9*9?9*9,23.0,17.1,69,98090,0,1323,400,3,0,0,361,0,0,0,180,4.1,8,8,777.7,77777,9,999999999,0,0.0000,0,0,999.000,0.0,99.0
2022,6,16,19,0,?9?9?9?9E0?9?9?9?9*9?9?9?9?9*9?9*9*9?9*_?9?9*9?9*9,22.5,17.0,70,98090,0,1323,397,0,0,0,0,0,0,0,180,2.4,8,8,777.7,77777,9,999999999,0,0.0000,0,0,999.000,0.0,99.0
2022,6,16,20,0,?9?9?9?9E0?9?9?9?9*9?9?9?9?9*9?9*9*9?9*_?9?9*9?9*9,22.0,16.9,72,98090,0,1323,394,0,0,0,0,0,0,0,180,2.0,8,8,777.7,77777,9,999999999,0,0.0000,0,0,999.000,0.0,99.0
2022,6,16,21,0,?9?9?9?9E0?9?9?9?9*9?9?9?9?9*9?9*9*9?9*_?9?9*9?9*9,21.6,16.8,74,98090,0,1323,391,0,0,0,0,0,0,0,180,2.0,8,8,777.7,77777,9,999999999,0,0.0000,0,0,999.000,0.0,99.0
